49
Properties=species:S:1:pos:R:3:REF_forces:R:3 smiles="[H:36][c:15]1[c:13]([n:6][c:12]([n:7][c:14]1[N:23]([H:39])[S:30](=[O:1])(=[O:2])[c:21]2[c:17]([c:18]([c:20]([c:16]([c:19]2[F:4])[H:37])[O:8][C@@:28]3([C@@:29]([C:27]([C:25]([C:24]([C:26]3([H:44])[H:45])([H:40])[H:41])([H:42])[H:43])([H:46])[H:47])([H:49])[N:22]4[C:11](=[C:10]([N:5]=[C:9]4[H:31])[H:32])[H:33])[H:48])[F:3])[H:38])[H:34])[H:35]" total_charge=0 REF_energy=-49895.04425624831 config_type=PubChem pbc="F F F"
O        5.51825716       3.14633419      -0.33507405      -0.91093567      -2.69144920       0.79106413
O        4.28279974       4.32161905       1.22093805      -0.91918917      -2.63728916       1.51593308
F        1.87206461       0.37345472      -2.48914215      -0.30715399      -0.07652942       1.26088906
F        2.33516469       2.03171839       2.70100405      -0.46888067      -0.49133204      -1.29355025
N       -4.85607192      -0.95843480       3.19739940       0.37831420       2.92437391       1.09287770
N        6.69772150      -1.48933957       1.22808703       0.32072094       1.33463524      -0.32927874
N        5.56490280       0.20530536       2.35953679      -1.33716447      -0.91741244       0.32367669
O       -0.19975368      -0.18968788      -0.69202600       0.14617176      -0.06951581       0.84463455
C       -4.26878641      -1.46021364       2.17427327       2.10642938       1.42307490      -0.74905908
C       -4.34777114       0.37492405       3.32176687       1.31529055       0.18294768      -1.56873917
C       -3.39279649       0.69373696       2.33790293      -2.32557368      -2.37373611       1.31470790
C        5.83912231      -1.10957692       2.17313900       1.08025223       2.51964715      -0.42612152
C        7.33376934      -0.44337420       0.56667845       0.17812068      -2.22658165      -0.37127512
C        6.08183577       1.17718747       1.61275043       1.82540707      -3.84363074       2.49011201
C        7.12395908       0.92030393       0.76722046       0.59670952      -1.37184672      -0.79835506
C        1.12086793       0.79268937       1.05395558      -0.78530751       0.41926647       2.07788942
C        3.14839747       1.36237498      -0.81312964      -0.49951023       0.50621225       1.28681968
C        1.97455146       0.67780574      -1.14907620       1.72135415       0.50752436      -2.56438352
C        2.15182735       1.60173263       1.40842112       3.47870062       0.81257553      -0.18296129
C        0.98234173       0.42574491      -0.27701018      -3.07955589      -1.07006081       0.47593451
C        3.25839093       1.89955880       0.46801993      -1.10501547      -0.85658330       1.39945834
N       -3.33222149      -0.48660645       1.57661750       0.53742298      -1.15312228      -1.14014803
N        5.72633793       2.42959120       2.00848295       1.39830615       0.97755773      -5.14422220
C       -3.69406984       1.31155219      -1.13385663       1.81183480       1.71616140       0.53411577
C       -4.19416473      -0.05285320      -1.44332240      -0.16860623      -1.27499387      -2.75285791
C       -2.11783431       1.20618906      -1.19218490      -0.08919899       0.68026671      -0.81541210
C       -3.38970206      -1.28012714      -0.80938242      -1.44660765       1.73762982       1.45193932
C       -1.47070430       0.25561806      -0.11232136      -1.40124393       2.22361857      -1.10024829
C       -2.47091005      -0.82559011       0.31671097      -0.11863487      -0.58860926       1.20443471
S        4.70980694       2.95463898       0.88046282      -0.35653494       7.50511747      -4.91310347
H       -4.38649127      -2.54969094       1.99722054       0.52756045       1.17507489      -0.72970931
H       -4.54343841       1.19535383       4.00047924      -0.86027861      -0.88790307       0.55837295
H       -2.92747782       1.69524815       2.27756884      -0.04732281      -1.26498463      -0.63147344
H        5.41380837      -1.76913164       2.93957092       0.21261606      -0.07597963      -0.82270398
H        8.07340814      -0.85253451      -0.18004886      -0.76594626       0.89618415       0.95093893
H        7.77205898       1.67246511       0.34574067      -0.34514322       0.00740724      -0.23854616
H        0.38814112       0.49445029       1.86361792       0.92142926       0.42144973      -1.32984512
H        3.88518693       1.55831434      -1.56773184       0.20963223       0.02235689      -0.10543788
H        5.29783298       2.49311735       2.80697396      -2.70968216       0.00940112       6.16998806
H       -4.10938594       2.22486951      -1.73199604       0.82229656      -2.09354514       0.53156534
H       -3.98907468       1.55495669      -0.12801889      -0.02532626       0.19919275       0.58743584
H       -4.08881042      -0.16111551      -2.58202169      -0.31662889      -0.08661135       1.47720697
H       -5.26065013      -0.04118059      -1.24981115      -0.11189686      -0.67724198       0.20030208
H       -1.62319014       2.20379045      -1.07989237      -0.43114177      -0.80161669      -0.24511640
H       -1.89482425       0.83019872      -2.22617719       0.10906487       0.24127680       0.99209346
H       -4.09091423      -1.97878144      -0.31619046       0.33912927       0.15197114      -0.84063853
H       -2.74989149      -1.77148054      -1.49800680       0.15999954      -0.48134314      -0.92184460
H       -1.36976430       0.93434619       0.72705985       0.77163271      -0.31199606       0.27056968
H       -1.85417221      -1.66978786       0.60450411      -0.02992101      -0.27200902       0.21016995
6
Properties=species:S:1:pos:R:3:REF_forces:R:3 smiles="[H:5][C:3](=[C:4]([Cl:1])[Br:2])[H:6]" total_charge=0 REF_energy=-84677.93252107472 config_type=PubChem pbc="F F F"
Cl       2.36008634       1.24847200       1.35811486      -0.77682628      -0.31735122      -0.72156206
Br       1.38334980       0.38166582      -1.51099680       0.14033572       0.20555753       0.77693438
C       -0.22070406       0.42262282       0.84258454       2.37052371      -0.18943386      -0.53246508
C        1.03583862       0.66958140       0.35759265      -2.11794187      -0.36337686       0.60499696
H       -0.40229378       0.50368578       1.91064908       0.01383317       0.18983771      -0.25900728
H       -0.98121354      -0.05096451       0.21711897       0.36761255       0.47507902       0.13518011
33
Properties=species:S:1:pos:R:3:REF_forces:R:3 smiles="[H:24][c:4]1[c:6]([c:12]([c:16]2[c:14]([c:8]1[H:28])[c:9]([c:10]3[c:15]4[c:17]2[c:13]([c:7]([c:5]([c:11]4[C:19]([C:18]3([H:32])[H:33])([C:3](=[C:2]([H:21])[H:22])[H:23])[O:1][H:20])[H:25])[H:27])[H:31])[H:29])[H:30])[H:26]" total_charge=0 REF_energy=-20955.0754486471 config_type=PubChem pbc="F F F"
O        0.90795427       0.87076743      -2.91235111      -0.59107525      -0.16926414      -1.08984033
C       -1.79499648       0.10347911      -3.88250682       1.70975168      -0.71761888       2.79904670
C       -1.31300423      -0.19752262      -2.62753103       0.13038480       0.64862798      -2.83409038
C        1.18013473       2.25445821       4.88432171      -0.56984840      -0.06585271      -0.78359193
C        1.38416245      -1.54546711      -1.03480527      -1.06486208       0.59589153      -0.33510461
C        1.78861143       0.99526044       4.93848517       0.16691796       0.01180257      -0.93156134
C        2.00077345      -2.08693025       0.10304954      -0.22093593       1.18072919      -0.10337574
C        0.49770925       2.63558867       3.72958066       0.07996819       0.46360543       1.40854476
C       -0.03541956       2.30058326       1.35286190      -1.05025513      -0.58748577      -2.24947791
C       -0.00120143       1.47629746       0.23545861      -1.70498341       4.16144966       0.98319747
C        0.64055468      -0.36540035      -0.91547248       0.83430976      -2.11999566      -0.50410406
C        1.78599813       0.18719503       3.81544091      -0.04896512      -0.17361577       0.84973467
C        1.91581263      -1.41028640       1.31229295       0.32086758      -1.03980817      -0.51236180
C        0.49869361       1.84081306       2.57470204       0.62930385      -0.34329679       0.47915871
C        0.63723739       0.29567801       0.30285355       0.81416747      -2.52146974       0.03453307
C        1.15086820       0.57453282       2.62787773       0.11946367       0.90184478       0.95705339
C        1.21747270      -0.20395551       1.45560410       0.77324717      -1.04593220      -0.54255926
C       -0.58854232       1.64669528      -1.16167758      -0.03575270       1.14318300       0.91752117
C       -0.08098207       0.45219867      -1.97112534       0.24858577      -0.21954821      -0.02530716
H        1.64373305       1.29399707      -2.46587894      -0.17647580      -0.10365993       0.26320342
H       -2.71342943      -0.37271843      -4.20774600       0.25119476       0.23994067      -0.22621222
H       -1.15928147       0.72943286      -4.50444457      -0.58022636      -0.00206155      -0.13121829
H       -1.84062216      -0.93203840      -2.04782698      -0.11066422       0.03866960       0.47442623
H        1.24005653       2.91490724       5.73704197      -0.20098491       0.00525371      -0.00187936
H        1.45064452      -2.06830690      -1.97990391      -0.01466181       0.09752620      -0.02443606
H        2.31200387       0.67732281       5.81665327       0.11723616      -0.09389399       0.32027663
H        2.60542919      -2.96899936      -0.02503524      -0.02595011      -0.16239134       0.29107635
H       -0.08657257       3.56195547       3.78055693       0.43638188      -0.28149847      -0.38542488
H       -0.54259501       3.25545909       1.26355644       0.15465495      -0.00668616       0.31663140
H        2.27407398      -0.78340290       3.88111450      -0.13052083       0.28663713      -0.09530955
H        2.44199862      -1.88129327       2.11268069       0.10520750       0.07969671       0.61896794
H       -0.28372047       2.59719874      -1.62943098      -0.26371950      -0.42957990       0.07493397
H       -1.67070816       1.61534931      -1.09554909      -0.10330275       0.22606850      -0.01277934
50
Properties=species:S:1:pos:R:3:REF_forces:R:3 smiles="[H:33][c:8]1[c:10]([c:15]([c:23]([c:16]([c:11]1[H:36])[H:41])[C:30]([H:50])([c:24]2[c:17]([c:12]([c:9]([c:13]([c:18]2[H:43])[H:38])[H:34])[H:37])[H:42])[N:27]([H:47])[C:7](=[S+:6][H:32])[N-:5][N:26]([H:46])[c:21]3[c:14]([c:19]([c:25]([c:20]([c:22]3[N+:29](=[O:1])[O-:4])[H:45])[S:31](=[O:2])(=[O:3])[N:28]([H:48])[H:49])[H:44])[H:39])[H:40])[H:35]" total_charge=0 REF_energy=-58378.60356405296 config_type=PubChem pbc="F F F"
O        4.85904600       0.76959746       4.05526855       0.53218073      -1.18309037      -3.36337504
O        6.37584736      -2.10563133      -1.80269192      -2.04804455       3.28160322       0.72468311
O        4.15640714      -1.77466223      -2.99606511      -0.14011941       1.60223770       1.16213253
O        6.39071276       0.66196286       2.44045963      -2.44506512      -0.24568503       1.31836329
N        0.93664881       0.28680707       3.29984285      -1.89989560       2.20615481      -0.99912580
S        1.63833048       2.57587745       2.00067641       0.91973615       1.56752653      -0.71276879
C        0.59416696       1.45461055       2.62016703      -2.57068014      -6.40268330       1.09027237
C       -5.09865615       3.96309759       1.34306129       1.58147184      -0.08558168      -1.13822994
C       -1.26317475      -0.70722387      -2.35031245       0.77954654      -0.57634296       1.53387695
C       -3.98723314       4.69295456       0.79587426      -1.70241796      -0.50414845       1.00968490
C       -4.84672353       2.61175730       1.66392949      -2.11303624       2.78176572       0.37286445
C       -1.11528037      -1.23340068      -1.01514397      -0.47394936       0.28690292      -1.59507855
C       -1.33482573       0.65463682      -2.57350443      -0.06620351       0.65055853       1.45693279
C        2.21617677      -1.16168449       1.14405443      -1.89228060      -0.37931568       0.32711827
C       -2.69603918       4.17277314       0.75070720       0.40109006       0.39697553      -0.13572331
C       -3.56557415       2.14936592       1.55896534      -1.24753542      -3.54162607       0.47059440
C       -1.17187617      -0.35790257       0.07212313      -0.19993170       0.09953779       0.40329811
C       -1.34969053       1.53677442      -1.46321652      -0.05334484      -1.67649415       0.25016016
C        2.77478315      -1.65691945      -0.03736249      -0.62908242       0.48374358      -0.21532624
C        4.93830254      -0.86138532       0.72754989      -1.38542884       0.15403404       0.25099736
C        2.94893005      -0.54741213       2.17308189       0.50939643       1.46282571       0.88755816
C        4.39141228      -0.35077105       1.94884529      -1.62709571      -0.93031642      -0.47890845
C       -2.48048184       2.80710413       1.08302422      -0.18026081       1.20893216       0.20214782
C       -1.25711212       1.03539731      -0.11672924       0.11610274      -1.12058781      -4.10707631
C        4.11706712      -1.50654671      -0.24153743       2.54672396       2.62415459       1.73618205
N        2.24324634       0.02570202       3.30304124       5.62966291      -0.92656431       0.02176991
N       -0.72359846       1.33819510       2.24805107       0.34440649       3.89191948      -1.86454141
N        4.67587806      -3.59207961      -1.52443311      -0.94455509      -1.33487703       1.60811860
N        5.24507381       0.41446009       2.88845469       1.77427647       0.48749299       0.58118946
C       -1.18390928       2.01607134       0.93014445      -0.36158658       1.76451170       3.71972711
S        4.88030006      -2.00800321      -1.76254795       3.34230025      -2.97431905      -1.51464223
H        2.57892825       1.93829634       2.69732930       0.75136372       0.05597149       0.13502086
H       -6.09283731       4.43965937       1.42276796       0.76226577      -0.48276479      -0.10126805
H       -1.23974273      -1.34201584      -3.22077463       0.04713158      -0.36136222       0.13279034
H       -4.21679160       5.69171860       0.43756162       0.44980315       0.00751868       0.20779453
H       -5.74062393       2.07988741       2.02709188       1.04355009      -0.33391578      -0.11242530
H       -0.96335194      -2.32924173      -0.89798281      -0.33605945       1.06115612       0.09800021
H       -1.33658872       1.03670766      -3.58911941      -0.21069746       0.02132849       0.21930178
H        1.11076542      -1.21269605       1.41954126       1.65452795      -0.10301661      -0.92203896
H       -1.92581389       4.95195582       0.51205246      -0.34260231      -1.41970485      -0.09447407
H       -3.53111312       1.06215986       1.80367484       0.62402784       0.81111289      -0.24173282
H       -1.21699283      -0.73919282       1.11262669       0.43679534       0.11949386      -1.00141522
H       -1.50531385       2.58378770      -1.66990207       0.26426953       0.19437693       0.27997343
H        2.31406810      -2.06356881      -0.94226227      -0.96655077       0.01245064       0.94350148
H        5.95878174      -0.71597669       0.45125631       0.52257601       0.16804220       0.29598598
H        2.87130072       0.04375135       4.16116383      -1.62065372       0.24618554      -1.39455495
H       -1.29222379       0.64306795       2.69117977       0.21936339      -0.18088553      -0.01913021
H        4.31894686      -3.87782142      -2.37978718      -1.02479514      -1.32859767      -1.73574372
H        5.61623241      -3.91760824      -1.43968794       0.31394879      -0.67374018       0.26827653
H       -0.55692361       2.88246896       0.69835285       0.92127612      -0.88463141       0.04150481
18
Properties=species:S:1:pos:R:3:REF_forces:R:3 smiles="[H:12][C:7](=[O:4])[O:6][C:10]([H:15])([H:16])[C:11]([H:17])([H:18])[C:8](=[O:5])[N:9]([H:13])[H:14].[H:2][O:1][H:3]" total_charge=0 REF_energy=-13982.433656320307 config_type="DES370K Dimers" pbc="F F F"
O       -1.58406007       6.41059970       6.45756006      -0.17205705       1.06732775      -0.92209485
H       -1.98840010       6.35762977       5.56204986       0.45258603       0.07162409       1.07433976
H       -1.36359000       7.36246013       6.57425975      -0.29447631      -1.16080482      -0.17157778
O        0.00000000       0.00000000       0.00000000      -0.41892300       0.71461719       0.52791555
O       -2.91476011       4.80073023       2.10941004       2.59532319       1.13188580      -1.45060721
O       -0.05958000       1.64102006       1.54860997      -0.93010674       0.42198656      -0.39543259
C       -0.56604999       0.94185000       0.48097000       0.60830360       0.22722015       0.15323558
C       -1.84692991       5.14140033       1.52764010      -1.56552567      -3.05675845       1.57104380
N       -1.52998995       6.40815973       1.25609994       0.04341764       1.30724382      -0.09983792
C       -0.86057997       2.76783990       2.05581999      -0.42366700       0.45767558      -0.30913344
C       -0.76449001       4.04974031       1.16073000      -0.01307687       0.37399190       0.06173008
H       -1.50773000       1.35916996       0.07263000       0.12217757      -0.11495486       0.29720309
H       -2.17398000       7.11206006       1.62533998       0.49568419      -0.39380900      -0.53089580
H       -0.69902003       6.69848013       0.73480999      -0.71562893      -0.37281533       0.56276177
H       -1.94095993       2.53271008       2.11004996       0.66843991      -0.23378110      -0.00466640
H       -0.50489998       2.95594978       3.08712005      -0.11366606      -0.18231750      -0.77950681
H        0.22363000       4.54356002       1.23294997      -0.39433004      -0.48925174      -0.07420763
H       -0.91457999       3.74989986       0.10573000       0.05273604       0.23084827       0.49037856
49
Properties=species:S:1:pos:R:3:REF_forces:R:3 smiles="[H:31][c:12]1[c:10]([c:14]([c:11]([c:13]([c:15]1[C:20]2([C:8](=[O:2])[C:19]([C:9](=[O:3])[C:24]2([H:48])[C:23]([H:46])([H:47])[C:25]([H:49])([C:16]([H:33])([H:34])[H:35])[C:17]([H:36])([H:37])[H:38])([H:40])[C:22]([H:44])([H:45])[C:21]([H:42])([H:43])[C:18]([H:39])([C:7](=[O:1])[O:4][H:26])[O:6][H:28])[H:41])[H:32])[H:30])[O:5][H:27])[H:29]" total_charge=0 REF_energy=-32396.132033272042 config_type=PubChem pbc="F F F"
O        4.55839207       3.59983565      -0.08070240      -0.62604489       1.09315887      -0.13046977
O        0.66331023       3.01767781       0.64583595      -0.57412228       0.38919606      -0.66739293
O        2.25798835      -1.01376603       0.25834932      -2.41234927      -1.27906792       1.95759241
O        6.05880787       3.31182124       1.60219361      -1.01841352       0.77203341       0.13256630
O       -3.86414001       0.49125909      -4.19340703       1.17462376      -0.17066936       1.45632834
O        4.93468286       0.50459120       1.42670824       0.64277519       1.14479424       0.53061535
C        5.20988991       2.90045883       0.61650438       1.12288623      -1.62969091       0.21535464
C        0.70395454       1.83903565       0.35058027      -1.30839578       4.73573288       1.38321697
C        1.46301212      -0.17437563       0.71715841       5.47547576      -1.86071734      -3.63090499
C       -1.83736083      -0.20375673      -2.90596864      -0.39199895      -0.07141202       0.84420794
C       -3.48570345       1.26091715      -1.98861859       0.64116341       1.12838728       0.99443130
C       -1.08293913      -0.15691719      -1.71410773       1.01973303       0.84759818      -0.27086719
C       -2.61373780       1.51989140      -0.89330290      -0.35924815      -0.46232904       0.85500473
C       -3.04200194       0.51577605      -3.05091116       0.21249428      -0.65830185      -0.43096885
C       -1.38238130       0.79537734      -0.70874248      -1.63715145       0.23779050      -0.50753975
C       -1.61841533      -0.08422396       4.69769957       0.35659685      -2.30015321       0.74397688
C       -1.94801233      -2.00080822       3.10007932      -2.33721906       1.04715553      -1.11375093
C        5.36334707       1.38835897       0.32454701      -0.24331280      -2.87362116       0.16736869
C        1.98154285       1.18043097       0.29724537       1.71621931      -0.50046403       0.68320051
C       -0.54567227       0.99880247       0.56703573      -0.04983378      -0.82310436      -1.71014886
C        4.51024796       0.78470098      -0.85258899      -1.39642128       2.38703386      -0.92399568
C        2.94477775       1.26033720      -0.94314513      -0.60916423      -1.87251929      -1.18211662
C       -0.15177296      -0.27900223       2.68735983       0.12280372       0.08400798      -0.35770002
C        0.06149574      -0.25495801       1.14243402      -2.00611784      -2.94502387       0.26677678
C       -1.60095856      -0.51775381       3.24465801       3.30516190      -1.22248393       1.37353061
H        5.83744099       4.24724390       1.84438934       0.28156816      -1.09938799      -0.53854136
H       -3.36961934      -0.01075707      -4.83337829      -0.03295918      -0.25801176      -0.55951943
H        5.43704655      -0.32601384       1.41669871      -0.22358389       0.74197961      -0.25639927
H       -1.53678940      -0.92499945      -3.63770149       0.11194857      -0.10325203      -0.50121628
H       -4.48533246       1.69200172      -2.09474919       0.52746954       0.14251972       0.33669565
H       -0.11587677      -0.74725447      -1.66505597      -1.45911297       0.63322635      -0.00209633
H       -2.98074839       2.22435012      -0.07489929       0.68150373      -1.07094768      -1.25558065
H       -2.63142679      -0.09948484       5.04984810      -0.59519862       0.77343826       0.19583020
H       -1.05955062       0.80515423       4.85650971      -0.03167931       0.93776876       0.34500561
H       -1.18194101      -0.88975213       5.35766842       0.08678526       0.77663865      -0.79157740
H       -1.31101237      -2.77271841       3.47599937       0.79968650       0.10934502       0.52144586
H       -2.98148272      -2.16527650       3.53692272       1.09783698       0.01119661      -0.72984767
H       -1.97385905      -2.08036229       2.00619247      -0.44865670      -0.84422186       0.21599371
H        6.47093012       1.21482756       0.18570777      -1.13564032       0.31003422      -0.18891127
H        2.64445712       1.57939579       1.08133997      -0.79726385       0.11115144       0.21359654
H       -1.12891779       1.37706550       1.37600478      -0.52172125       1.11128874      -0.10104924
H        4.47994377      -0.29895506      -0.82291100       0.44096779       0.11108759       0.27672814
H        4.93190624       1.12653186      -1.83035037      -0.29599832      -0.37714782       0.69116304
H        2.87946560       2.22011700      -1.41250727       0.18841666       0.89753322       0.54584716
H        2.42057588       0.65681212      -1.74685452       0.99466739       0.03694386       0.84408248
H        0.30616870       0.64975261       3.07630660      -0.38849309      -0.34124015      -0.01515271
H        0.42502809      -1.10301778       3.05924417       0.54502192      -0.30901337       0.37195944
H       -0.41284649      -1.19804964       0.65064798       0.96767202       1.42995776       1.00908503
H       -2.27223036       0.06936171       2.72771623      -1.61146395       1.06763595      -1.30435629
45
Properties=species:S:1:pos:R:3:REF_forces:R:3 smiles="[H:28][c:11]1[c:13]([c:16]([c:14]([c:12]([c:15]1[C:9]2=[C:10]([N:17]([N:4]=[C:8]2[H:26])[C:6](=[O:1])[O:5][C:25]([C:19]([H:32])([H:33])[H:34])([C:20]([H:35])([H:36])[H:37])[C:21]([H:38])([H:39])[H:40])[H:27])[H:29])[H:31])[N:18]3[C:7](=[O:2])[C:22]([C:24]([C:23]3([H:42])[H:43])([H:44])[H:45])([H:41])[Br:3])[H:30]" total_charge=0 REF_energy=-99666.81692751334 config_type=PubChem pbc="F F F"
O        2.02067162       2.45295837      -4.34685943      -1.98914892      -1.02448797       2.75120322
O       -1.20472310       0.76089860       5.60201695      -0.91212337      -0.63164843      -1.17980289
Br      -1.80951975      -3.09211466       5.87798597      -0.30332187       0.88498615      -0.54433672
N        3.45931341       2.22314360      -1.70882079       0.38381794      -0.39384650      -0.98347526
O        0.12601956       1.71192851      -3.19446204       3.02685379       0.88047510       1.68533365
C        1.44079955       2.16396238      -3.28967688       2.26325834       1.12085709      -3.64959605
C       -0.58753190      -0.28777961       5.56925633      -1.17471990       1.54840260       3.53039553
C        3.47702744       1.78865197      -0.47577010       1.61248111       0.24637579       0.01955303
C        2.15419104       1.62694707       0.02652224       3.98554813      -0.59385689       2.53038672
C        1.34767242       1.92451968      -0.93279467      -2.70174215       0.80836424      -1.95051959
C        2.82510473       0.70302858       2.29074230       0.48541538       2.00585026      -1.35303276
C        0.62014714       1.06963195       1.70782830      -4.98662942       0.20459026       0.87186668
C        2.45428850       0.24100550       3.49966480      -0.45183936      -1.10236285       3.94687842
C        0.19521912       0.65923267       2.97855641      -0.32959331      -0.04440436       1.93200122
C        1.88791515       1.19882681       1.35587051       1.71127985      -1.62349645       0.94053909
C        1.12838437       0.21366348       3.98439910      -0.95987507       0.53203770      -3.40999565
N        2.13888218       2.32117869      -2.02836463      -4.41567000      -1.22755233       0.44509401
N        0.69486844      -0.35677437       5.21331074       2.85427000      -1.48223157      -1.53386855
C       -0.03176418       0.28699034      -5.18249843       2.44789998      -0.02901555      -0.62014397
C       -1.14340804       2.46527054      -5.10220191      -2.07046136       0.82116205      -2.07536715
C       -1.92984149       0.64908070      -3.70868347       0.84228192      -1.14575354      -0.47825307
C       -0.88636896      -1.41785262       6.55557825      -1.41028494      -1.81126634       0.04320311
C        1.41143026      -1.51411579       5.84681799      -0.03062930      -1.15138905      -1.26693793
C        0.44673110      -1.95973179       6.97772218       0.87740625      -0.31051111       0.62624811
C       -0.65040181       1.35248359      -4.31417654      -2.95811421      -2.07614192      -0.53152618
H        4.46728565       1.57956459       0.05484676      -1.68684555       0.54078953      -1.02144734
H        0.23893010       1.83103564      -0.83405683       1.44279256       0.49978501      -1.05061209
H        3.85197189       0.98728960       2.14855888       0.41688212      -0.63227584      -0.17636622
H       -0.18835477       1.35934838       0.95511751       1.07769238      -0.41601306       1.47669689
H        3.16054704      -0.05370984       4.29760673       0.20835661       0.21345869      -1.00947734
H       -0.86034487       0.79380491       3.30738022       0.93036807      -0.36746979      -0.74582307
H        0.39638909      -0.40230236      -4.48718068       0.44434521      -0.77338442       0.35647939
H       -0.59772382      -0.32479791      -5.88719032      -0.73090146       0.66309419       0.37077197
H        0.82468268       0.67607702      -5.77175424      -0.50534465      -0.04156405       0.41006386
H       -1.55287788       3.27608135      -4.57473037      -0.07807708       1.11257645       1.33682237
H       -2.07793019       2.17158462      -5.67389295       1.36151866      -0.15398188       0.28842206
H       -0.43625049       2.84707739      -5.78533122       0.83765222       0.43254176      -0.80996278
H       -2.57374189       1.33139088      -3.11575768       0.47836963      -0.61235187      -0.33952622
H       -2.48183486       0.16071220      -4.58051631       0.49714720       0.99842533       1.28596065
H       -1.50413463      -0.21615360      -3.13812778      -0.82593307       0.82991359       0.06522126
H       -1.55792759      -1.14667306       7.39269449       0.58181232       0.22408110      -0.86397729
H        1.63592782      -2.34945629       5.11927654      -1.14065650       0.67942700       0.29933137
H        2.45156433      -1.32954357       6.08150674      -0.14471031       0.97100595       0.85515606
H        0.42507948      -3.07089851       7.15040352       0.24709996       1.36082827      -0.29560382
H        0.60661058      -1.49249098       7.95215894       0.79286497       0.06971270      -0.17573451
40
Properties=species:S:1:pos:R:3:REF_forces:R:3 smiles="[H:27][c:13]1[c:16]([c:14]([c:12]([c:15]([c:17]1[S:8][C:21]([H:31])([H:32])[C:10](=[O:2])[O:6][C:20]([H:28])([H:29])[H:30])[Cl:4])[H:26])[F:3])/[N:5]=[C:11]2/[N:19]3[C:23]([C:25]([C:24]([C:22]([N:18]3[C:9](=[O:1])[S:7]2)([H:33])[H:34])([H:37])[H:38])([H:39])[H:40])([H:35])[H:36]" total_charge=0 REF_energy=-63342.52830111917 config_type=PubChem pbc="F F F"
O       -4.31903646       0.77174934       2.30987431       0.75848404       0.30109573      -1.47760160
O        4.71504642       0.75046960      -1.78654239       0.13403607       1.60543408       0.20778833
F        0.36534492       2.92224505       2.15924754       0.25321515      -0.27774023      -1.29104339
Cl       1.85494330       5.05364849      -2.26772545      -0.52452391       1.73203758       0.29192769
N        0.47129756       0.34852510       0.82728221      -4.52983003      -1.59077585       1.63908735
O        4.48556091       2.63410880      -0.50966821       0.00833845      -0.29119177      -1.00531232
S       -2.10734508       1.46725538       0.91247299       0.46613823      -0.88236040       0.18952928
S        2.40760865       2.36628844      -3.37374828      -1.82547672      -1.15977286      -0.88192672
C       -3.25149438       0.45061231       1.79150047      -1.42268214      -1.00339729       2.69509744
C        4.51618578       1.94869640      -1.71927450      -0.44796962      -1.17961453       0.66333314
C       -0.84242938       0.19404539       1.14557769       2.84565505       0.75371985      -0.61653232
C        0.93956431       3.93924215       0.09176688       0.01962592      -1.63339427      -1.74936404
C        1.40137996       1.43259557      -1.04837439      -1.49057349      -0.08893625       1.01552074
C        0.70053045       2.78955009       0.82866251      -0.09019981       1.04783340       0.22766685
C        1.28061547       3.76333811      -1.29078970       0.71450708       1.97850245       2.30511825
C        0.79909848       1.54671445       0.22601866       0.92750722      -0.82424365      -0.79771947
C        1.61031952       2.56096937      -1.80343101       0.50234973      -2.04040365      -0.71993067
N       -2.71847675      -0.76781318       2.14998939       0.10367148      -0.81986316      -1.82629550
N       -1.37266884      -0.96439073       1.65216138       0.53025677       2.15115170      -0.54970636
C        4.81064607       1.91662302       0.71431794       0.53630531      -1.94698904      -0.67033173
C        4.05679323       2.75785425      -2.98536179       2.33963790      -0.70568159       0.22825362
C       -3.49715898      -1.89048860       2.84432223       2.39082668       0.29466963       0.75085814
C       -0.61542008      -2.19303510       1.45231309      -1.74789434       0.24301691       0.86299346
C       -2.85051201      -3.25965688       2.38310077       0.47145198       1.35121600       0.83681868
C       -1.26007268      -3.21991298       2.33018806      -1.09638786      -1.40191642       0.18620924
H        0.86606222       4.86328413       0.58236602      -0.04624043       1.18703092       0.18744879
H        1.51332207       0.42492350      -1.43211481       0.27358305       0.27586701       0.00981120
H        4.09198787       1.10467722       0.98962256       0.47414838       0.33374825      -1.07985447
H        4.67301848       2.55660607       1.56391635       0.52194882       0.97690616      -0.10660818
H        5.85726930       1.46072998       0.62051571      -1.55854641       0.80719750       0.32794567
H        4.11067440       3.82788183      -2.87894604       0.59132548       0.23320663       0.19717357
H        4.65389874       2.37740876      -3.90328691      -0.82298434       0.74583446       1.75174403
H       -4.61415527      -1.79823921       2.83871557       1.31397228       0.17331882      -0.80558470
H       -3.18137930      -1.68096636       3.88277270      -0.50143240      -0.60441783      -0.14320018
H        0.36774983      -2.08190701       1.83723392       0.85379491       0.59347152       0.10600014
H       -0.51294563      -2.48346112       0.41915315      -0.42982438       0.14096555      -0.51041207
H       -3.20898769      -4.06844518       3.03630855       0.32700981       0.39355988      -0.05809496
H       -3.22501133      -3.48110339       1.41893025      -0.31294860      -0.23684970      -1.14674433
H       -0.94608924      -4.16073034       1.80165722      -0.12683226       0.32787288       1.57003462
H       -0.85864637      -3.01280472       3.35636427      -0.38126269      -0.95168769      -0.81304728
27
Properties=species:S:1:pos:R:3:REF_forces:R:3 smiles="[H:23][C:16]1=[C:14]([C:9](=[O:1])[C:15](=[C:13]([O:6][H:20])[O:7][H:21])[C:10](=[O:2])/[C:17]1=[N:5][N:18]([H:24])[C:11]2=[N:3][N:4]=[C:12]([S:8]2)[C:19]([H:25])([H:26])[H:27])[H:22]" total_charge=0 REF_energy=-35499.05728566067 config_type=PubChem pbc="F F F"
O       -0.18420455       5.46305229       0.39014631      -1.51864297       4.33493090      -0.17289705
O       -1.20037685       1.11634513      -0.76176975       1.34575878      -0.46482030       0.54700234
N       -0.21333013      -3.00786230       1.10439374       0.92878871       2.77973611       0.61964273
N        0.47735970      -4.01810501       1.57111301       3.14374535      -4.04547268       0.96467574
N        0.98779177       0.43972357       1.15905555      -0.60106790      -1.73831890      -1.51709348
O       -1.98495386       5.08987572      -1.59799407       1.03875067      -3.06938422       0.59939849
O       -2.31370876       2.85121419      -2.15526555       0.74609426       4.61380401       1.08877297
S        2.20647039      -2.18826625       1.79170313      -1.26992947      -0.08096090      -0.29156600
C        0.12574425       4.34735896       0.16261610       1.32930627      -3.40405110       0.75972100
C       -0.38243172       1.94192829      -0.30080233      -2.13764944       0.31007752      -0.87428573
C        0.53475193      -1.93827412       1.22844341       1.74887123       1.16226010       0.59456440
C        1.76732554      -3.85802791       1.93972399      -1.98327668       0.19720809      -1.34348152
C       -1.63286707       3.77315810      -1.37547419      -3.83969418       0.95274607      -3.52964126
C        1.39841690       3.88193490       0.72743922       1.53894771       0.24274213       0.09501073
C       -0.68775842       3.37589933      -0.51883862       2.37415008      -1.50486433       1.24070982
C        1.77708461       2.59242656       0.77836726      -1.01973418       1.00794118       0.82988110
C        0.77334896       1.55342581       0.51769223       0.76709933      -0.17488918       0.77174409
N        0.17205238      -0.63839314       0.96125977      -1.38530944       1.30885660      -0.77544544
C        2.79932644      -4.97247550       2.19467237      -2.02918966       0.01956538      -2.59812162
H       -1.38971183       5.58633997      -0.98790810      -0.34596348       0.11914076       0.06370136
H       -1.82367895       2.07443847      -1.93594906       0.11324600      -2.19956618       0.34305836
H        2.00462355       4.73832085       1.10822751      -0.30185437      -1.05891940      -0.43770244
H        2.70787504       2.29712679       1.23610564       0.02317455      -0.11769552      -0.05164033
H       -0.70350847      -0.53132246       0.42333672       0.74764838       0.20954140       0.26492735
H        2.17167451      -5.88811442       2.27768125       0.91280490       0.47010386       0.12360802
H        3.52680256      -5.05046174       1.32237031      -1.17517749       0.04256616       0.92714210
H        3.37366631      -4.74348066       3.02743866       0.84860607       0.08988740       1.75830574
17
Properties=species:S:1:pos:R:3:REF_forces:R:3 smiles="[H:12][c:6]1[c:7]([c:9]([c:11]([c:10]([c:8]1[H:14])[H:16])[H:17])[H:15])[H:13].[H:3][C:2]([H:4])([H:5])[F:1]" total_charge=0 REF_energy=-10129.037038992135 config_type="DES370K Dimers" pbc="F F F"
F        3.15809011      -0.64795005      -1.50769996       0.01260771      -0.01700529      -0.01877408
C        2.53334999       0.17393000      -0.58995002      -0.45553889       0.60049474       0.67036445
H        1.77919996       0.80399001      -1.09082997       0.36481544      -0.33931151       0.08713156
H        3.27109003       0.83099997      -0.09944000      -0.21368868      -0.35003712      -0.29648902
H        2.02983999      -0.42923000       0.18417999       0.26753196       0.13849510      -0.40565358
C       -0.10537000       1.40632009       2.11418008      -0.13424543      -0.14969068       0.02716532
C       -0.29824001       2.36852002       1.12219000      -0.16390977      -0.00724166      -0.12044586
C        1.06039000       1.41872001       2.88094997       0.03064305      -0.14668222       0.13582365
C        0.67464000       3.34311986       0.89697004      -0.02331538       0.13200101      -0.15148314
C        2.03326988       2.39332008       2.65573001       0.17499509      -0.00370121       0.10376387
C        1.84039998       3.35552001       1.66373992       0.14647584       0.13473345      -0.03990408
H       -0.87091994       0.63942003       2.29139996       0.41161056       0.41418600      -0.09471869
H       -1.21555996       2.35877013       0.51883000       0.49347684       0.00584347       0.32625196
H        1.21215999       0.66157997       3.66153002      -0.08207122       0.40885910      -0.41940726
H        0.52288002       4.10026026       0.11639000       0.08135067      -0.40673757       0.42146068
H        2.95058989       2.40306997       3.25907993      -0.49485330      -0.00466760      -0.32380421
H        2.60594988       4.12241983       1.48651004      -0.41326917      -0.41207761       0.09620827
23
Properties=species:S:1:pos:R:3:REF_forces:R:3 smiles="[H:19][C:11]([H:20])([H:21])[N:9]([C:8](=[N:3][H:14])[N:10]([H:18])[P:13](=[O:2])([O:5][H:16])[O:6][H:17])[C:12]([H:22])([H:23])[C:7](=[O:1])[O:4][H:15]" total_charge=0 REF_energy=-28320.94008231531 config_type=PubChem pbc="F F F"
O       -2.71141527       0.08820104       2.21196666      -3.78800687       1.47375758       3.41760084
O        0.62831669      -1.27708444      -1.03337285       1.53770522       1.57828353       0.65396996
N        1.63637366       2.55927660       0.06025433      -2.30195531       0.26868310       1.27609849
O       -2.12305114      -0.90593359       0.41559929       1.37552310      -0.59932359      -1.86980684
O        1.88666012       0.49645853      -2.23799441       1.09097259       1.39310941      -1.30147077
O        3.19361736      -1.50753877      -1.12207577      -1.85588333       3.44992101       0.79595713
C       -1.84855196      -0.29268590       1.55469277       3.93542729       0.23268154      -2.02498398
C        1.33624961       1.41996744       0.60628186      -2.08309977       6.69208393       0.65946367
N        0.24897766       1.30777212       1.48140182      -0.66053264      -2.34600058       0.41401894
N        2.17170825       0.43732822       0.34281864       2.59686929      -4.33410883       0.61001380
C       -0.57469866       2.47629788       1.83463004       1.11740290       0.37296720       0.21331590
C       -0.33850513      -0.03011022       1.98471667      -0.50431370       1.00959631      -4.51025242
P        1.87207474      -0.40992508      -1.00646994      -2.14045786      -7.12185103      -0.50479543
H        2.54611161       2.68518426      -0.34630058       0.13242685      -0.82041665      -0.12563179
H       -1.34191880      -0.99388574      -0.19802711      -0.59999063      -0.05911266       0.89697745
H        1.99390580      -0.11296294      -2.98114035      -0.18635901       0.38484084      -0.39250796
H        3.82850697      -0.86112557      -0.77043269       1.00212257      -0.85900757      -0.25191724
H        2.28689971      -0.22459505       1.10037967       0.13259654      -0.22927617       0.16691579
H       -1.45018516       2.16976406       2.40951207       0.28876918      -0.18290552      -0.19418737
H       -0.89850996       2.95943286       0.91396241       0.08360064       0.28230174       0.26047812
H        0.04637416       3.14771678       2.47878971      -0.62447298      -0.23373621      -0.78798109
H       -0.36058191      -0.12882040       3.00429251       0.43553866       0.11885653       2.42958054
H        0.14271738      -0.83165620       1.46759029       1.00460050      -0.47248080       0.16240600
25
Properties=species:S:1:pos:R:3:REF_forces:R:3 smiles="[H:21][c:10]1[c:12]([c:15]([c:13]([c:11]([c:14]1[O:3][H:18])[H:22])[H:24])[S:5][C:9]2=[C:8]([C:6](=[O:1])[N:17]([C:7](=[O:2])[N:16]2[H:25])[O:4][H:19])[H:20])[H:23]" total_charge=0 REF_energy=-32518.73365853937 config_type=PubChem pbc="F F F"
O       -1.76303647       0.85098907       3.05382945      -0.27052086       0.53452096      -0.47798152
O       -1.31740460       4.96060850       1.17112007       0.16208930      -1.46597619       0.42328432
O        3.51930358      -3.35079191       0.39469395      -0.90542421      -0.06931550      -0.37589194
O       -2.38455675       3.46330359       3.27790954       0.55381905       1.74707416      -2.02007693
S        0.38743854       1.24278011      -1.55876444      -0.26189866       0.84476137      -0.46384637
C       -1.47860477       1.56230452       2.09306707       0.08253826      -1.05994423       1.76588753
C       -1.21444354       3.72884275       1.14310225      -1.31657581       4.78166311       0.78401098
C       -0.85828433       1.03114089       0.89800178       0.34088110       1.17232048      -1.82807585
C       -0.45623527       1.83227398      -0.14499990      -0.59411266      -0.15521567       2.12353931
C        1.71202781      -2.49782560      -0.83897421      -0.69348803       0.68377277      -0.68944133
C        3.10221316      -0.97476099       0.39039924      -0.51887764       0.51798938       0.26491070
C        0.99363386      -1.38942657      -1.34614847      -0.39951816      -0.79009392       0.72840575
C        2.34360411       0.11194562      -0.04565034       0.79599318      -0.40399364       0.68743142
C        2.77759030      -2.27165363       0.01941993       0.06673824       0.00908774      -0.62379697
C        1.28828558      -0.10241304      -0.89212725      -0.22161107      -0.71784409      -0.77306226
N       -0.68504963       3.20577480      -0.01609925       0.40127689      -2.48093714       0.15853220
N       -1.65910981       2.94376351       2.19595184       0.38092978      -1.83395576      -1.02431296
H        4.25237610      -3.04685972       0.90124931       0.82382199       0.19516464       0.61956345
H       -2.47476337       2.81398799       3.96466758       0.54391889      -1.44645383       0.03371081
H       -0.73881195      -0.02586595       0.78438362      -0.07554554      -0.24528427       0.39025184
H        1.47579374      -3.52717159      -1.09818754      -0.03344217       0.33902634      -0.10372684
H        3.88425686      -0.82147572       1.10521623       0.43473073       0.14027165       0.15992752
H        0.10038542      -1.49090884      -1.98477981       0.76909562      -0.25977797       0.29373026
H        2.55075433       1.11777111       0.29838026       0.15394011      -0.15686011      -0.01434196
H       -0.12793235       3.86309745      -0.53623054      -0.21904727       0.11569026      -0.03791976
19
Properties=species:S:1:pos:R:3:REF_forces:R:3 smiles="[H:18][C:11]1([c:8]2[c:7]([n:2][c:5]([n:1][c:6]2[O:3][H:12])[C:9]([H:13])([H:14])[H:15])[C:10]([S:4]1)([H:16])[H:17])[H:19]" total_charge=0 REF_energy=-23261.271270311106 config_type=PubChem pbc="F F F"
N        1.67720308       0.78268733      -0.88113568      -1.60455180      -1.18472742      -0.89757823
N       -0.52726815       0.27019220      -0.18537781      -0.94163619      -1.54143948      -2.71759971
O        3.15073969       1.26524033       0.64139233       2.79100491       1.71237787       0.18710252
S       -0.25391094       0.08760276       3.77910187      -0.97338540       0.03604598      -1.65142044
C        0.45980441       0.31607201      -1.13985942      -0.49573528       0.98359533       0.90520033
C        1.93393733       0.91561782       0.40248058      -0.53868318      -0.16186071       0.27279219
C       -0.24327490       0.38136026       1.06899776       0.32124206       1.74264800       1.16859261
C        1.06805178       0.73216613       1.41618379      -2.99601449      -1.21419064       3.44111147
C        0.14217793      -0.18477402      -2.52188823       1.16943598       0.90223520      -0.48277508
C       -1.31053803       0.42525086       2.25524952       1.39764079       0.32670925      -0.63183322
C        1.15501168       0.88090636       2.96116163       2.07373442      -0.79965647      -0.62862877
H        3.36177828       1.63796236      -0.23216060       1.08855848      -0.18255087       0.35201187
H       -0.86005352      -0.48573039      -2.43161676      -1.17460062      -1.00980531      -0.26388340
H        0.11939024       0.63275611      -3.32340500       0.61942203      -1.15571079       1.16641048
H        0.87125449      -1.03060148      -2.74285457      -1.13804541       1.19890601      -0.07380183
H       -1.73406217       1.43668511       2.39068093       0.39839021      -0.35463438      -0.42467339
H       -2.15293906      -0.22973446       2.06510904       0.25336222      -0.39585377       0.26711066
H        2.03458192       0.26992180       3.33776977      -0.72443375       1.45830388      -0.25712832
H        1.16248318       1.95078589       3.19453814       0.47743455      -0.35724811       0.26608347
23
Properties=species:S:1:pos:R:3:REF_forces:R:3 smiles="[H:10][C:4]([H:11])([H:12])[C:8]([H:22])([C:5]([H:13])([H:14])[H:15])[N:2]=[C:1]=[N:3][C:9]([H:23])([C:6]([H:16])([H:17])[H:18])[C:7]([H:19])([H:20])[H:21]" total_charge=0 REF_energy=-10473.011554400266 config_type=PubChem pbc="F F F"
C        0.64703194       0.50411505       0.54484157      -1.69575382      -2.03641643       1.54549380
N       -0.04952262      -0.00594995       1.39987971       0.41977842       0.46638075      -0.75575211
N        1.33447757       0.91509106      -0.33172259       1.53113729       1.41815649      -1.03814955
C       -0.04069362      -2.27672670       2.15193465       0.17007697      -1.37841229      -0.01056172
C       -2.04090641      -1.30323027       1.12061401      -0.40375531      -0.60543529       1.41042682
C        3.18962958       2.49980261      -0.76330898      -0.65965105      -0.03375905       0.06137729
C        0.82874914       3.30061891      -0.44972215      -0.40349774      -0.20241054       0.64567845
C       -0.51227448      -1.34774921       1.06598457      -1.69309395      -1.08469345       0.98400469
C        1.86052753       2.23416271      -0.00599942       1.13014130       2.50095858      -0.93458138
H       -0.50864980      -3.28198574       2.02101590       0.23853203       0.73749029       0.20558534
H        1.03814985      -2.44565771       2.11097886      -0.08086251       0.22810175       0.13926328
H       -0.32367591      -1.85800049       3.11978676       0.11510198      -0.17628633      -0.08478490
H       -2.51449702      -2.29863045       1.03276213       0.43296760       0.36193121      -0.19429395
H       -2.34504602      -0.93211541       2.13768246       0.26896843      -0.10955941      -1.03979509
H       -2.43092106      -0.66404793       0.36163340      -0.36382764       0.51914273      -0.43069902
H        3.64578702       3.44417193      -0.46719227      -0.14683036      -0.03021323       0.19995343
H        3.00660159       2.57724001      -1.84482262       0.02292321      -0.29779082       0.33271437
H        3.88425447       1.70230426      -0.54796944       0.25552462      -0.19918988      -0.13121340
H       -0.10983012       3.20015432       0.12146222       0.32635476      -0.06102867      -0.28678260
H        0.59334931       3.26959326      -1.51151417       0.09684659      -0.42972910      -0.01405379
H        1.18981053       4.30047157      -0.27096901       0.31546504       0.33103674       0.25750834
H       -0.22917829      -1.73989484       0.08419879       0.36434162       0.48511570       0.05017615
H        2.05790331       2.37733914       1.09152140      -0.23953101      -0.40358427      -0.91140475
26
Properties=species:S:1:pos:R:3:REF_forces:R:3 smiles="[H:21][C:6]#[C:7][c:16]1[c:14]([c:18]2[c:17]([c:15]([c:13]1[H:24])[Cl:5])[O:9][C:20]([C:12](=[C:11]2[H:23])[C:10](=[O:1])[O:8][H:22])([H:26])[C:19]([F:2])([F:3])[F:4])[H:25]" total_charge=0 REF_energy=-40410.25328665262 config_type=PubChem pbc="F F F"
O       -3.40681813      -0.97452829       1.07035943       0.07920386       0.64992040      -0.60340462
F        0.35696481      -0.39383022      -3.08176992       0.16377705       0.08951549      -0.04003677
F        0.58672740      -1.49350021      -1.22326598      -0.20950455      -0.70808974      -0.68402736
F       -1.34131763      -1.60139272      -2.45530102       1.75769773       0.91703350       1.22192933
Cl       2.74813368       2.99809124      -1.32391796      -1.05652438      -1.01804933       1.20795885
C        4.79657127       1.23717501       4.27754142      -2.68695512      -0.49017316      -3.28802497
C        3.89062788       1.13558050       3.41116812       2.93294908       0.36321877       2.34037311
O       -3.54912374       0.14881887      -0.86433146      -1.79234753      -0.18249963      -0.34246409
O        0.26891999       1.30467363      -1.01210532      -0.20810374       0.50486934       1.03128633
C       -2.90231321      -0.30770628       0.19089346       1.85534530      -1.05985159       1.83175377
C       -0.63623736       0.16650041       1.30195566      -3.63235695      -1.96774193      -1.03954560
C       -1.42372845       0.05860748       0.17599230       0.95590349      -0.12409777       1.51205775
C        3.09479572       1.96310629       1.15883019       0.86675753      -0.69623120      -0.62873266
C        1.58776035       0.66042981       2.42924645       0.43373755       0.11411596      -2.28377418
C        2.14641025       2.05739548       0.11142095       2.83471377       0.95435315       0.55780125
C        2.90301206       1.14776888       2.31459966      -1.43667542       1.55546694      -0.12873999
C        0.95684041       1.35835763       0.18167590       1.24666340       0.88180584      -2.70625920
C        0.64243279       0.70384853       1.33642384       2.43469439       0.46596814       1.17342249
C       -0.26864473      -0.80232785      -1.99340675      -1.26909678      -0.29630665       0.86796066
C       -0.79589615       0.39138614      -1.12195907       0.37053600      -1.23436126      -0.39656727
H        5.70674612       1.27561130       4.89310934      -1.22789426      -0.04691808      -0.52000313
H       -4.48409793      -0.16767023      -0.74457822       1.10268207       0.45025740      -0.30385192
H       -1.03060005      -0.23760722       2.19516470      -0.64737929      -0.03014791       0.95208617
H        4.12054779       2.34605529       0.98169269      -1.05006483       0.07420732       0.14814783
H        1.38106170       0.08047330       3.25876262      -0.81645772      -0.93662793       1.59503357
H       -1.59016702       0.70329048      -1.70959375      -0.99744160       1.77580765      -1.47261440
18
Properties=species:S:1:pos:R:3:REF_forces:R:3 smiles="[H:7][C:2]([H:8])([H:9])[C:4]([H:13])([H:14])[C:5]([H:15])([C:3]([H:10])([H:11])[H:12])[O:1][H:6].[H:17][O:16][H:18]" total_charge=0 REF_energy=-8443.303442004597 config_type="DES370K Dimers" pbc="F F F"
O        0.57343000       0.52767002      -2.77916002      -1.06619666       2.12328737       0.02593185
C        0.00000000       0.00000000       0.00000000       0.40364782       0.35646171      -0.29733931
C        0.98778999      -1.58104002      -2.45386004       0.56897333      -2.04745807      -0.57800942
C       -0.86171001      -0.61699998      -1.10416996      -1.24018961       0.28714335       0.24083986
C       -0.17456001      -0.64781004      -2.45626998       1.38732058      -0.03731067      -0.04368650
H        0.10616000       1.36497008      -2.57667995       0.14740017      -0.96717647      -0.27199019
H        0.41172999       0.89460003      -0.49677000       0.17485469      -0.23077924       0.79879193
H        0.83805001      -0.64189005       0.31978997      -0.40908179       0.29105818      -0.19059466
H       -0.55906004       0.32060000       0.89514005       0.09910043      -0.30371504      -0.52113946
H        1.75502002      -1.38563013      -1.68587995      -0.57352952       0.14615935      -0.32674346
H        1.44935000      -1.46740008      -3.44918012       0.07746763      -0.31951339       0.52720313
H        0.63799000      -2.62141990      -2.34498000       0.27433558       0.24384778      -0.05045096
H       -1.21466005      -1.63629997      -0.85538000       0.13476662       0.52731435      -0.18054555
H       -1.75291002       0.03063000      -1.21271002       0.15105558      -0.40302026       0.15654167
H       -0.81905001      -0.93326002      -3.31244993      -0.13325362       0.32402311       0.70360776
O       -1.39300000      -5.38562011      -4.84924984      -0.07382195       0.06773059      -1.38723479
H       -1.12845003      -4.63896990      -5.43299961      -0.32852408      -0.94041540       0.67406412
H       -1.71588003      -6.08065032      -5.46644974       0.40637208       0.88041836       0.71857418
17
Properties=species:S:1:pos:R:3:REF_forces:R:3 smiles="[H:6][C:4]([H:7])([H:8])[C:3](=[O:1])[O:2][H:5].[H:13][C:10]([H:14])([H:15])[C:11]([H:16])([H:17])[O:9][H:12]" total_charge=0 REF_energy=-10459.934122697903 config_type="DES370K Dimers" pbc="F F F"
O        0.81380004       1.73905003       2.37614012       0.40545243       0.23425652      -0.17490265
O        2.06448007       3.25008011       1.26319003      -1.34638004      -0.30716486       0.09935116
C        1.90129995       2.20148993       2.11226988      -0.11683524       0.34251510      -0.29165689
C        3.22000003       1.72855008       2.64685011       0.41064571      -0.51902820       0.47415460
H        1.14587998       3.49164986       0.96345001       0.96533719      -0.04189666       0.12459952
H        3.07042980       0.87834001       3.33341980      -0.01696125       0.47221732      -0.39175694
H        3.72489976       2.54038000       3.19695997      -0.23158074      -0.30107837      -0.37073505
H        3.87472987       1.40294004       1.82106995      -0.30570320       0.27841931       0.32968695
O       -0.99220001       3.78404999       0.41411000       0.22389975      -0.87355056       0.60402515
C       -0.74836999       2.15646005      -1.40411007       0.19500776      -0.16106747      -0.10273271
C       -1.56443000       3.28281998      -0.79499996      -0.27534887       0.38052080      -0.35222403
H       -0.95977002       3.04362011       1.05528998      -0.09288327       0.59971794      -0.44063354
H        0.28407002       2.49498987      -1.59407008      -0.41901543      -0.18042078       0.06649389
H       -1.19456994       1.83456004      -2.36009001       0.19402226       0.09209035       0.39874721
H       -0.71471995       1.29016995      -0.72219997       0.00963894       0.30498382      -0.29289346
H       -1.59429002       4.15254020      -1.47920000      -0.02995715      -0.49181440       0.35410696
H       -2.60740995       2.95438003      -0.62242997       0.43280664       0.17082773      -0.03228531
45
Properties=species:S:1:pos:R:3:REF_forces:R:3 smiles="[H:33][c:14]1[c:13]([c:16]([c:15]([c:18]2[c:17]1[C:7](=[C:10]([N:19]3[C:9](=[C:5]([C:6](=[C:11]3[C:8]2=[C:12]4[C:23]([C:25]([N:20]([C:26]([C:24]4([H:40])[H:41])([H:44])[H:45])[C:22]([H:35])([H:36])[H:37])([H:42])[H:43])([H:38])[H:39])[H:28])[H:27])[H:30])[H:31])[H:29])[H:34])[S:4][C:21]([F:1])([F:2])[F:3])[H:32]" total_charge=0 REF_energy=-43037.63161514618 config_type=PubChem pbc="F F F"
F        0.46551457      -3.79208276       3.40249159      -0.90939946      -1.16296409      -0.00279553
F       -0.25435243      -5.21275232       1.89284518       0.09774138       0.01540757       0.57768452
F       -1.39798031      -5.01759717       3.74111130       0.87384381       0.89737261      -0.60690999
S       -1.62126873      -2.94252059       2.05800702       0.10939396      -0.49721635       0.02349813
C        4.72795631       1.77521600       0.09731638      -0.85244885       0.44103256       1.61788057
C        3.40052130       1.81972995       0.67337922       0.26503275      -0.00656988      -0.44735368
C        1.89177384      -0.82942293      -2.46508072       1.59920308       2.05691296       0.63977733
C        1.13322105       0.94485398      -0.14903126      -2.20159163       1.24333136       0.07609330
C        4.63984062       1.16872307      -1.10072622       1.68389409       0.29789592      -0.34344079
C        2.89793684       0.11530765      -2.44897220      -1.71124795      -1.69040795      -0.61844515
C        2.56338622       1.24285402      -0.26740859       0.27644694       0.28485007       1.48552549
C        0.14677634       1.90849127       0.04038259       1.37429134      -2.38229740      -0.81689580
C       -0.19632599      -3.14381978      -0.37782393       0.41010177       0.76188471      -0.08365869
C        0.60597828      -2.61494110      -1.38159654      -0.26023495       1.28785552       0.68060960
C        0.00599184      -1.07377634       0.80426796      -0.53469002      -0.13018268       0.49375988
C       -0.53390405      -2.36753175       0.74080805       1.01364827       0.29893333      -0.06023445
C        1.08063855      -1.27623460      -1.32147882       0.02600895      -1.18531959      -0.55233044
C        0.75679840      -0.49499951      -0.22154156      -0.14600110      -0.00374059      -0.00847237
N        3.34127237       0.82810311      -1.33149574      -0.67112041      -0.35585175      -0.66192647
N       -1.47897742       3.30262472       1.84490564      -1.17537229       1.26806078       0.17671532
C       -0.65135524      -4.34133766       2.83443477       0.11639262       1.20690565      -0.71955182
C       -2.03490636       3.80357840       3.13206722       1.29641770      -0.50956353      -0.31601033
C        0.46842399       3.34234001       0.28844122      -1.44621548       0.35629465      -0.46156828
C       -1.34926150       1.59940483       0.08929273       0.11188049       0.10553614       0.13397507
C       -0.05850682       3.63840963       1.71505513      -0.37779578      -0.21049563      -0.57761335
C       -1.89145205       1.95562794       1.46946706       1.27803583       0.43675474       0.38674465
H        5.61456396       2.12249532       0.59590565       0.12851069       0.03423476      -0.19106192
H        3.10986998       2.21818819       1.66189840       0.18593807      -0.36477319      -0.94647552
H        1.70794358      -1.30142639      -3.41318605      -0.03023149      -0.08354587      -0.15293427
H        5.50990393       1.00610094      -1.74261663      -0.95490744      -0.27578651      -0.15468866
H        3.40986468       0.31672515      -3.39521930       0.01947549      -0.01696169       0.59150379
H       -0.51132069      -4.14805982      -0.43647353      -0.46129832      -0.86571919      -0.13368300
H        0.84365221      -3.13918922      -2.28322313       0.01090345      -0.60215106      -0.10545646
H       -0.19871644      -0.44598333       1.66367700      -0.02859581      -0.21481723      -0.02731367
H       -3.13259957       3.78792383       3.18850495       0.45848132      -0.17158230      -0.25049765
H       -1.67501566       4.84196045       3.28726675      -0.36117033      -0.62393324      -0.13462497
H       -1.58913395       3.17950584       3.94294979      -0.54326740       0.39689325      -0.03802388
H        1.51747443       3.52077844       0.15118866       0.39865947       0.18129083       0.30672525
H       -0.07739458       3.97157647      -0.46467064       0.31696238      -0.43046102       0.77245435
H       -1.85916398       2.18509938      -0.69177184       0.22164290       0.06958482       0.37275590
H       -1.67157219       0.56988467      -0.06244556       0.65508028      -0.02995061      -0.30931596
H        0.06474107       4.68664791       1.97355368      -0.04993479       0.07155988      -0.08143748
H        0.54658465       3.06606104       2.41039183       0.32598987      -0.29690415       0.38026214
H       -1.49894259       1.22868766       2.19940807       0.05451470      -0.10904179      -0.03714537
H       -2.95550296       1.80774857       1.46871938      -0.58274122       0.49309686       0.13464954
47
Properties=species:S:1:pos:R:3:REF_forces:R:3 smiles="[H:25][C:7]1=[C:8]2[C:9](=[C:10]3[C@@:23]4([C@@:22]([C:18]([C:15]([C:14]3([O:4]2)[O:3][H:24])([H:34])[H:35])([H:40])[H:41])([C:19]([C:16]([C:17]([C:21]4([H:45])[H:46])([H:38])[H:39])([H:36])[H:37])([C:12]([H:28])([H:29])[H:30])[C:13]([H:31])([H:32])[H:33])[H:47])[C:20]([H:42])([H:43])[H:44])[C:11]([C:6](=[O:2])[C:5]1=[O:1])([H:26])[H:27]" total_charge=0 REF_energy=-28301.09742973876 config_type=PubChem pbc="F F F"
O        6.49019910       1.66063347      -1.76050923       0.39059181      -0.89332821       0.37573451
O        6.00034477      -0.77114210      -0.37143497      -2.32385120       3.05293851      -1.18626985
O        0.87447795       3.35284473       0.94660183      -0.54603972       0.58871910       0.04761420
O        2.18518617       3.17245056      -0.86243878       0.13726881      -1.28406836      -0.28829028
C        5.43710329       1.44134356      -1.19307265       0.52281756       1.28711962      -1.34146631
C        5.12576868       0.12290582      -0.54187129       2.53138622      -4.28258102       2.34984133
C        4.43829276       2.47540953      -1.24933062      -1.28450573       0.44720195       0.27329873
C        3.20809653       2.27348461      -0.71516392       1.31937356       0.10157364      -0.85648226
C        2.82512905       1.03381982      -0.05476675      -2.39154789       0.15551857       0.68332845
C        1.47502854       1.19371208       0.18357911       2.33425505      -1.24914967      -0.76982599
C        3.80462911      -0.15876482       0.17579218      -1.15671334       2.18945098      -1.35251052
C       -3.02339337       0.87784114       2.15422978      -0.10369392      -0.01192235       0.21949663
C       -2.65994213      -1.03144870       0.66760188       0.50731385      -0.12364830       0.05140135
C        1.02928814       2.58718683      -0.23178307       0.07259952      -0.63202261       1.04476705
C       -0.27062795       2.47515228      -1.05187080       0.27553102       0.20683601       0.08700043
C       -1.30061672      -0.77489302       2.81347086      -0.05331994       0.77933374       0.35735411
C       -0.03568838      -1.52472160       2.51489140       0.39821582       0.13957963      -1.33442524
C       -1.38703642       1.70259525      -0.26497648       0.65546745       0.57635849       0.96139719
C       -1.93457220      -0.05235324       1.61022832       0.36515895       0.50295405      -0.36045668
C        0.37217786      -0.84057388      -0.63996551       0.96013528      -0.86012798       0.23903055
C        1.01180106      -0.63574336       1.83370604      -0.24203577       0.42521127       0.48260550
C       -0.82926629       0.83941107       0.93884738      -0.51361759       0.06753254      -0.43699752
C        0.50122490       0.11147704       0.57603440      -0.73812161       0.20960370       0.32528462
H        1.73006513       3.78220298       1.10574671      -0.50150752      -0.26810022      -0.04482190
H        4.68519737       3.35710671      -1.84055827      -0.07898186      -0.26578455       0.33321573
H        4.02057864      -0.27058539       1.23079928       0.05468753      -0.05645650       0.09365182
H        3.35101940      -1.08290265      -0.19873557       0.31914230       0.20802261       0.11033292
H       -2.57260415       1.71078708       2.70019342      -0.13235028       0.01697786      -0.14375872
H       -3.66877601       0.34298729       2.86783030       0.13890102       0.09675071      -0.32460552
H       -3.64349792       1.24963530       1.33197631       0.08021618       0.08525182       0.32442252
H       -3.37485788      -1.57079599       1.27968302      -0.20721723      -0.17436812      -0.06559409
H       -3.21254609      -0.51581535      -0.11971001       0.08028074       0.00950910       0.13867774
H       -2.00717232      -1.76303551       0.18580624      -0.11160101       0.13679948       0.19101774
H       -0.60376272       3.48408725      -1.36686132       0.16436557      -0.67604713       0.15794193
H       -0.04968069       1.86785652      -1.93335602       0.27035731       0.40276348      -0.01566110
H       -1.04027734      -0.00509737       3.59313633      -0.51502669      -0.64900023      -0.58745136
H       -2.05140493      -1.45912776       3.19870116      -0.05949171       0.04943314       0.37649715
H       -0.20605895      -2.36052654       1.85307934      -0.39363435      -0.35047468      -0.26549197
H        0.37583580      -1.96625803       3.39668491       0.31133643      -0.10901881       0.67943083
H       -2.07266590       2.49113014       0.11061698       0.22834777      -0.89506757      -0.09320052
H       -1.91511915       1.03804209      -0.95259164      -0.01379660       0.32950093       0.09076562
H       -0.22889684      -0.42769185      -1.42130993      -0.25952606       0.40368741      -0.47097054
H        1.36256745      -1.10448716      -1.06894360      -0.56006306       0.44055433       0.27345677
H       -0.06706188      -1.81058714      -0.40985129      -0.09175571       0.18502010       0.34343547
H        1.83966281      -1.23763440       1.52300265       0.56582232      -0.40892220       0.01671669
H        1.38843300       0.07010688       2.59778287      -0.14096528      -0.02414320      -0.56278283
H       -0.50525258       1.52130463       1.73040774      -0.26719351       0.11711918      -0.12273556
11
Properties=species:S:1:pos:R:3:REF_forces:R:3 smiles="[H:5][C:3]([H:6])([H:7])[C:4]([H:8])([Cl:1])[Cl:2].[H:10][O:9][H:11]" total_charge=0 REF_energy=-29270.65575118152 config_type="DES370K Dimers" pbc="F F F"
Cl       0.82740998       2.47815990      -0.61476999      -0.26845073       1.85301596      -1.55463679
Cl       0.21913000       1.66624999       2.08838987       0.03065268       0.24648949       0.22830662
C        0.00000000       0.00000000       0.00000000      -0.04342898       0.25638521      -0.09451571
C        0.85027998       1.20530999       0.48453000       0.61862301      -2.74828679       1.09526633
H       -1.02165997       0.38881001      -0.14716001       0.40581863      -0.30978593       0.02639794
H       -0.03714000      -0.81446999       0.74288005       0.16534383       0.54363123      -0.24923314
H        0.36052000      -0.41299000      -0.95712000      -0.02394702       0.36060941       0.42545117
H        1.92579997       0.97398996       0.62458002      -0.88734302      -0.19021904       0.11643059
O       -1.49460005       6.03866004      -1.28575992       0.67707530      -0.22113661       1.17449708
H       -1.86231005       6.03392028      -0.37305999       0.50914306      -0.02389311      -1.09747353
H       -0.53943002       5.83282995      -1.16942000      -1.18234768       0.23046957      -0.07135643
33
Properties=species:S:1:pos:R:3:REF_forces:R:3 smiles="[H:27][C:12]1([C:11]([S:8][C:13]([N:9]1[N:2]=[O:1])([H:29])[C:15]([H:31])([C:17]([H:33])([C:16]([H:32])([C:14]([H:30])([C:10]([H:23])([H:24])[O:3][H:18])[O:4][H:19])[O:6][H:21])[O:7][H:22])[O:5][H:20])([H:25])[H:26])[H:28]" total_charge=0 REF_energy=-34667.494232612764 config_type=PubChem pbc="F F F"
O       -0.08699445       0.27487855      -4.31728313      -0.94237786       0.14544010       2.15333923
N       -0.22916553       0.36061997      -3.09452531       2.47584410      -1.48994639      -1.86890113
O       -0.84918247       1.69073751       5.41294529       0.07824648       2.23807903      -2.63436713
O       -1.76752947       1.61974742       2.78403022       1.58640052      -0.16450442      -1.12369173
O        1.22918143       2.27291419      -1.55442998      -0.07260212      -3.14872058       1.14620509
O        2.03414025       1.33541002       2.45340528      -0.20780473      -0.32636337       0.57510034
O        0.56055766       3.16160824       0.94313430       0.30852724      -0.90908342      -1.53686036
S        1.74968936      -1.63002274      -0.35999677       0.83454725      -0.05557225       0.28874386
N        0.78811698      -0.35128561      -2.43762634      -0.17647214       0.31879969      -0.52944484
C       -0.17776374       0.95586999       4.41890361       0.90247460      -0.47958013       0.86043549
C        1.22249498      -2.57190607      -1.82650373       1.36851126       0.61359372      -0.09005178
C        1.46011843      -1.59760926      -3.01493928      -0.92101901      -0.69814399       2.31907305
C        0.84121953      -0.20541606      -0.92852686      -3.21448661      -0.18724432      -1.30865161
C       -0.34991351       1.68384959       3.16346910      -0.41065547       0.96853072       0.36727537
C        1.18066945       1.17720248      -0.43492136       2.22289894       2.74567947      -0.41361922
C        0.65338787       1.13646950       2.13861289      -0.43948155      -0.51065243      -1.93376342
C        0.33209372       1.74760964       0.74868263      -1.89077326       0.12438625      -0.63971060
H       -0.83159421       1.25549843       6.19873049       0.08238073      -1.88970361       3.35283420
H       -2.35672567       1.69023564       3.53804114       0.61789956       0.11927269       0.35509693
H        1.47704097       1.72821738      -2.34446023      -0.31556068       1.05722308       0.98032295
H        2.42237713       2.21045031       2.29895725      -1.12212128      -0.14433674      -0.16573884
H        0.65212215       3.48127129       0.02354940      -0.02089923       0.18824110       0.72722043
H       -0.67265496       0.04995223       4.28895237      -0.94985815      -1.97882475      -0.18991185
H        0.87581744       0.67007556       4.60709526      -0.33647830       0.81021347       0.26047405
H        0.17347606      -2.67957685      -1.69581101      -0.77262761      -0.96089179      -0.11837625
H        1.86124374      -3.48205516      -1.87229369      -0.91544836       0.51453044      -0.02161230
H        1.05577995      -2.06079052      -3.90492866      -0.67196542       0.87151898      -0.22317592
H        2.52374532      -1.60720370      -3.12030814       0.64377437       1.10633933      -0.26994110
H       -0.19447712      -0.30208419      -0.55137477       0.13784782      -0.48264340      -0.53119606
H       -0.06158713       2.70063689       3.41020205      -0.16755963       0.45081265      -0.48188202
H        2.20540060       1.11347868      -0.08210573       0.23680314       0.33564718       0.07213116
H        0.54186205       0.02363839       2.10186102       0.07251335       0.80386570      -0.06359373
H       -0.80009887       1.61042621       0.47231070       1.97463564       0.01053782       0.68315342
47
Properties=species:S:1:pos:R:3:REF_forces:R:3 smiles="[H:29][c:10]1[c:16]2[c:14]([c:12]([c:8]([c:11]1[Cl:1])[H:27])[Cl:2])[N:17]([C:23]([C:22]2([H:39])[H:40])([H:41])[H:42])[c:6]3[c:13]4[c:15]([c:9]([c:7]([n:5]3)[C:19]([H:30])([H:31])[H:32])[H:28])[N:18]([N:4]=[N:3]4)[C:26]([H:47])([C:24]([H:43])([H:44])[C:20]([H:33])([H:34])[H:35])[C:25]([H:45])([H:46])[C:21]([H:36])([H:37])[H:38]" total_charge=0 REF_energy=-52559.360211569794 config_type=PubChem pbc="F F F"
Cl      -2.57488916       0.79602703       6.57047035      -0.71940244       0.12382334       0.55127289
Cl       1.75288941       1.04850878       3.62356808       0.50832117      -0.13352772       0.02013343
N       -0.18068138       0.00957909       1.48907508      -2.67319918       1.50432148       0.92939790
N       -0.26142500      -1.08170936       0.85235223       2.44414000       0.34780750      -0.04358708
N        1.32667401       3.14290263      -0.11717669      -1.21163770      -2.34312508       2.26487448
C        0.67664381       2.41792741       0.91797098       0.15941977       3.19404034      -2.28107020
C        1.87108984       2.42519452      -1.12415049      -0.47919768      -1.00022935       1.20029188
C       -0.50544486       1.06892546       5.02657797       0.22232261       0.92163655      -1.81023059
C        1.82795050       1.04888674      -1.23704682      -0.30094761      -0.95774089      -0.37186664
C       -2.28383062       2.63939145       4.59001591       0.52697219       2.25560777      -2.01380597
C       -1.74113605       1.59635117       5.29474308      -0.62931609       0.45050578       0.07962808
C        0.16324940       1.62742605       3.95392181       0.46494078       2.11251743      -1.42020393
C        0.49170578       1.02412590       0.77991851       0.48089094      -1.37737666       0.92265941
C       -0.34593747       2.76066663       3.11808970      -1.85938099      -1.46463795       0.54724003
C        1.08712663       0.35217308      -0.26089011       0.19878902      -0.82404968      -1.55430011
C       -1.61757133       3.24243881       3.42471125      -0.15660441      -2.18540819       1.46694003
N        0.03244277       3.28472807       1.84814681       1.30164441      -0.84179829      -0.99749027
N        0.62665667      -0.97047911      -0.18713353       1.28978674       1.54456683      -2.32243278
C        2.50278129       3.13377597      -2.22654245      -0.25232424      -0.03761003      -2.16734138
C        3.52566864      -2.23412869      -0.03543041       0.98969297      -0.48914527      -1.78253938
C        0.48048576      -3.58410976      -2.99142382      -1.04644716       0.41376567      -3.16337067
C       -2.17402075       4.10449841       2.27465500       0.01129522       0.50590027      -0.12913076
C       -0.93272791       4.40356972       1.32209095      -0.62301317      -1.09744166       1.69220808
C        2.18109562      -2.89790866      -0.37328337       0.12256751       1.52757995       0.44266791
C        0.05858221      -2.81566904      -1.81579492       0.17975538       0.27634571       1.62809334
C        1.14323868      -2.01347706      -1.11622570       0.17119191      -1.17922119       0.06324236
H       -0.19240091       0.21098434       5.57911446       0.62420437      -0.15394228      -0.00317924
H        2.21990730       0.60305581      -2.17137287      -0.27666271       0.07353267       1.00954101
H       -3.16400240       3.16809227       4.90057423      -0.60019930      -0.50216818       0.18892806
H        3.51636769       3.41670968      -2.06208704       0.90395580      -0.05474318       0.35535111
H        1.98317399       4.07435276      -2.35137174      -0.22214677       0.10215846      -0.54155510
H        2.46902647       2.45146181      -3.14960668       0.04058759       1.46311919       1.15306493
H        3.43499209      -1.21289477       0.36534609       0.11441560      -0.65653910       0.08396087
H        4.22970798      -2.23620389      -0.89795480      -0.75132634       0.63172335       0.01070952
H        4.09644987      -2.93944499       0.56135881      -0.25059720       0.35046845       0.96042163
H        0.90852862      -3.01573274      -3.86999557      -1.35485082       0.17606924       0.57258049
H       -0.46577082      -4.16930673      -3.25647614       1.83683423       0.44169689      -0.31571687
H        1.34311213      -4.15428302      -2.88555190       1.03379771      -1.92907540       1.06231652
H       -2.64220950       5.02422287       2.69643118       0.32556756      -0.58761796      -0.63652572
H       -2.90275333       3.58794405       1.60867467       0.18920612       0.03619524       1.11732093
H       -1.19024251       4.32049133       0.23290362       0.58576165      -0.45760278       1.22199110
H       -0.64340541       5.45250370       1.49785914       0.80791402      -0.78310954       0.04165101
H        1.81040813      -3.04264495       0.61535542      -0.98354701      -0.58258103       0.57318320
H        2.31423881      -3.86209819      -0.82792113       0.04583856      -0.27244310      -0.37819770
H       -0.69003258      -2.10174296      -2.10527179      -0.78363279      -0.03801349       0.16968785
H       -0.26857856      -3.60783288      -1.16988359      -0.99309805       0.17862602       0.83633406
H        1.57419481      -1.62591956      -2.04000566       0.58476236       1.32205589       0.76351989
31
Properties=species:S:1:pos:R:3:REF_forces:R:3 smiles="[H:23][c:9]1[c:10]([c:14]([c:19]([c:15]([c:11]1[H:25])[H:29])[C:5]2=[N:2][N:21]3[C:8](=[C:7]([S:4][C:6]3=[N:3]2)[c:20]4[c:16]([c:12]([c:18]([c:13]([c:17]4[H:31])[H:27])[Cl:1])[H:26])[H:30])[H:22])[H:28])[H:24]" total_charge=0 REF_energy=-44598.63686680305 config_type=PubChem pbc="F F F"
Cl       0.33974151       7.13314249      -4.06268642       0.23434511      -0.29072437       0.97903056
N        1.02453380      -0.14256982       1.99622299       0.03165844       1.45030800       0.04504962
N        1.14436140      -1.62649200       0.31884047      -0.75753854      -0.63926999      -1.01351348
S        1.02221226       0.34488588      -1.79148171       0.12042075      -0.86559025       0.50935049
C        1.06253984      -1.40924511       1.65729787      -0.46941562       0.12566020      -0.06071329
C        1.01906198      -0.41614590      -0.19384763       1.82949164      -0.89423542      -0.47795659
C        0.83642190       1.87197425      -1.02137635      -0.49045332       3.15434019       2.34434155
C        0.73037038       1.76751449       0.36072108       1.23705223       1.35674389      -0.78677477
C       -0.28011135      -4.49007032       4.40166022       1.66236779       2.56433385      -1.96977328
C       -0.54486630      -3.08091495       4.59089567      -0.76305979      -1.51841470       2.28696941
C        0.57441945      -4.88832662       3.32212117      -1.13534843       4.68852357       0.39122898
C        1.04067930       5.68253662      -1.77162788       0.59737031       1.64840662       0.71347712
C       -0.05125008       4.54815056      -3.56365535       1.19833689       0.19389978      -0.03820904
C       -0.04622481      -2.07125423       3.78326942      -0.68986248       0.12965385      -0.36048776
C        1.00505402      -3.83025167       2.46612658      -0.53704372       1.49577621       0.73008771
C        1.18332078       4.53164579      -1.03565429      -0.31477240      -2.66492475      -1.73676754
C        0.16588213       3.31321671      -2.95651481      -1.85509090      -0.11481035       1.04148775
C        0.45872011       5.71437504      -3.00442002      -0.83832776      -1.02028661      -1.89173342
C        0.69241465      -2.41629479       2.65835621       0.58406448      -3.12704366       0.25733422
C        0.77975096       3.27435019      -1.70641372       0.02811743      -0.42190156       1.77701001
N        1.08287718       0.49385675       0.78982510      -1.78149304       0.26139836       0.27452061
H        0.58498290       2.60185935       1.08438816       0.19091672      -0.99673962      -0.82437889
H       -0.62620506      -5.18600652       5.09655811      -0.61458826      -0.92368259       0.93191323
H       -1.14427231      -2.78436182       5.54897549       1.05638288      -0.60782641      -2.05696544
H        0.93409952      -5.84041450       3.14299538       0.29510281      -1.82588919      -0.16618767
H        1.42009683       6.64332916      -1.43771455      -0.00669956      -0.25444714       0.46421991
H       -0.40804080       4.65104296      -4.55616138      -0.78868153      -0.28808690      -0.57653988
H       -0.36621300      -1.03161583       3.93430569       0.39941604      -0.57682155       0.07334280
H        1.62680676      -3.97716329       1.60585668       0.17332956      -0.60495425      -0.24394516
H        1.66011717       4.58335592      -0.06310210      -0.10686074      -0.34102632      -0.20397813
H       -0.51678763       2.44038524      -3.18926690       1.51125869       0.90377935      -0.40484435
27
Properties=species:S:1:pos:R:3:REF_forces:R:3 smiles="[H:16][C:4]12[C:2](=[C:1]=[C:3]3[C:6]4([C:12]5([C:13]4([C:15]6([C:7]3([C:14]56[H:26])[H:19])[H:27])[H:25])[H:24])[H:18])[C:5]7([C:10]8([C:8]1([C:9]2([C:11]78[H:23])[H:21])[H:20])[H:22])[H:17]" total_charge=0 REF_energy=-15749.23003314885 config_type=PubChem pbc="F F F"
C        0.68922476       0.81513785       0.40228179       1.17116426      -0.40228985      -0.18824186
C        1.72345068       0.62137753       1.15840646       0.17366537       0.61359176       1.58664815
C       -0.13619176       0.76634707      -0.58403537      -3.35206765       0.16595556      -1.25039746
C        2.15584042       1.53929450       2.30494144      -0.78708218      -4.18539625      -0.80948693
C        2.37955119      -0.68498061       1.47263678       2.26960608       0.24680462      -1.12288471
C       -0.90223406       1.99669697      -1.11712799       0.91001349       0.57911532      -3.34971582
C       -1.13048492      -0.38710640      -0.98916123       1.19613075      -0.06864289       3.31901224
C        2.22336008       0.57085681       3.46725251       0.50215647       1.58784410       3.87734603
C        3.45934965       0.99477293       2.76675178       2.06705058       0.95921682       0.69821768
C        2.48595312      -0.84511540       2.94992234      -0.75020326      -0.22629883       1.28691668
C        3.65023114      -0.35073368       2.22900894       1.11314314      -0.65825429      -1.54207930
C       -1.61126277       1.43899592      -2.43584344      -1.07874818       1.34387720       0.07046499
C       -2.38335154       1.71431758      -1.13483021      -0.99282505       2.05718747      -0.73572462
C       -1.85824654      -0.06418655      -2.18417142      -0.43834699       1.55218935      -0.66740233
C       -2.47381804       0.27293002      -0.82312677      -2.33261630      -2.54627484      -0.28900555
H        2.34290351       2.52511646       2.09791078      -1.21452299       2.60174842       0.49766038
H        2.42126586      -1.52793739       0.84077095      -0.32300699      -0.57993647      -0.69833808
H       -0.58389828       3.08573749      -1.15071962       0.01977568      -1.88253545       0.16271547
H       -0.95513484      -1.45855186      -0.73732982      -0.14687253       1.27460847       0.19966482
H        2.15703895       0.72603386       4.56220104      -0.60368709       0.25186710      -1.03496640
H        4.27622559       1.57017138       3.21006348      -0.58852815       0.17826453      -0.40562576
H        2.79672863      -1.63819955       3.63427784      -1.54313600      -0.27766295      -0.45387644
H        4.58027698      -0.85222433       2.23518624       0.59506340      -0.52454470      -0.48732421
H       -1.82276366       1.94356384      -3.41249702       0.58155145      -0.37869372       1.29513766
H       -3.33140895       2.39333870      -1.19816563       2.31743561      -1.00900697       0.89258495
H       -2.46180866      -0.67622040      -2.80052183       0.40739372      -0.78558940      -0.78689183
H       -3.40301249      -0.20164851      -0.47629783       0.82820012       0.11401812      -0.06284140
44
Properties=species:S:1:pos:R:3:REF_forces:R:3 smiles="[H:28][c:8]1[c:12]([c:16]([c:7]([n:3][c:6]1[H:27])[N:18]([H:34])[c:15]2[c:10]([c:9]([c:14]3[c:13]([c:11]2[H:31])[C:5](=[C:4]([N:17]3[H:33])[H:26])[C:25]4([C:24]([C:22]([N:19]([C:23]4([H:40])[H:41])[C:21]([H:35])([H:36])[H:37])([H:38])[H:39])([H:42])[H:43])[H:44])[H:29])[H:30])[N+:20](=[O:1])[O-:2])[H:32]" total_charge=0 REF_energy=-30534.866084499463 config_type=PubChem pbc="F F F"
O       -3.52375791      -1.07968078      -0.97193334      -0.06659706       0.04011872      -0.62861247
O       -1.63629029      -1.79205129      -0.34183673       1.21319247      -0.55664954       0.68608745
N       -0.12034176       0.25687357      -3.62218711      -1.93480995      -0.46796816       0.37580569
C        2.89060904       3.55465557       2.64739134      -1.69024725      -1.30538369      -2.13184822
C        2.17220022       2.42039897       2.52800991      -1.64326914      -3.40050773      -0.03141230
C       -0.76755271      -0.13823084      -4.73147390       2.17163951       1.78788317      -1.92064257
C       -0.69673679      -0.14369539      -2.41623638       3.33452467       0.70768406      -2.51724576
C       -1.87118457      -0.96962796      -4.84509799      -0.14183842       1.08312236      -0.78106982
C        1.86833813       3.34144975      -0.92617796       2.38799925       3.34558003       0.65713457
C        1.25512793       2.31305530      -1.55086348      -0.30082714      -1.11234941       2.55670617
C        1.03341474       1.17913427       0.47804503      -0.35902633      -1.30461978       1.35065700
C       -2.42937110      -1.29290507      -3.64053247      -1.42431150      -0.51110838      -0.01730291
C        1.76808288       2.15493228       1.11842706       0.77265805       2.00705104       2.07582765
C        2.20653155       3.30442955       0.43507568      -1.28499581      -1.61939201       0.54085687
C        0.77744860       1.19882574      -0.85496555       0.27030162       0.90382310       0.72348186
C       -1.79891226      -0.96189020      -2.45213935      -0.41055740       0.01100692      -0.71393103
N        2.78373434       4.13820531       1.37117680       1.63742302       1.62138004      -0.38164457
N       -0.05458788       0.15568858      -1.26622937      -1.47135614      -0.77006820      -0.31931629
N        0.63825101      -0.73998401       3.73210551      -1.20204067       1.81388286       1.89427105
N       -2.34355733      -1.30275486      -1.18830631      -2.83571048      -0.30766011       0.74115757
C       -0.59715615      -1.59319637       3.78239967       1.82812584       1.29780395       0.10569412
C        1.90551546      -1.15238533       3.18610098      -0.37758433      -0.40867196      -0.31053253
C        0.48457791       0.78312971       3.89496114       1.12565730      -1.44637200      -0.66816183
C        2.84399845       0.07860675       3.22211959      -1.47976806      -0.10495154       0.01597892
C        1.94821849       1.34101286       3.58112862       0.54326370       0.11463807      -0.11544003
H        3.53127506       3.76074412       3.47810532       0.03460458       0.97137599      -0.03393291
H       -0.37527821       0.33184875      -5.74278686      -0.47146905      -1.05924176       2.26435253
H       -2.34625671      -1.05769942      -5.85770557       0.42261175      -0.31565917       1.45427023
H        2.27284255       4.27843859      -1.38960359      -0.78667840      -1.19740239      -0.49953340
H        1.12584402       2.23968103      -2.52068970      -0.53641819       0.49273508      -4.75205046
H        0.57763378       0.33355572       0.98817058       0.40145842       0.24753090       0.55739096
H       -3.43775485      -1.70074938      -3.66436527       0.35679511      -0.34681095       0.53732850
H        3.19224812       5.03274014       1.16067257       0.00683802      -0.20474452      -0.17402386
H       -0.55727849      -0.33760968      -0.52450285       1.16193769       0.56198199       0.14569776
H       -0.24687282      -2.56795762       4.16007330      -0.54448514       0.11766559      -0.56716225
H       -1.19291661      -1.14136992       4.59291317      -0.16661591      -0.33863914      -0.58181000
H       -1.15795026      -1.62401936       2.80263950       0.47863606      -0.21938060       1.00333074
H        1.68432345      -1.44910798       2.16571357       0.59787824      -0.23710208      -0.61175155
H        2.35316088      -2.06476925       3.67861130      -0.47123899       0.92402764      -0.14266732
H        0.12225267       1.13857891       4.90159418       0.45127755      -0.75130401      -0.83039895
H       -0.26200656       1.07776525       3.15881397       0.08485545       0.52347215      -0.05496257
H        3.34909775       0.18468504       2.25520899      -0.08931725       0.14318213       0.43243240
H        3.55019094      -0.04822187       4.01172378       0.66983196      -0.08943356       0.32113570
H        2.36464276       1.84326710       4.46025040      -0.26475940      -0.64213250       0.34427251
47
Properties=species:S:1:pos:R:3:REF_forces:R:3 smiles="[H:30][c:12]1[c:11]([c:14]([c:15]([c:13]([c:16]1[C:21]([H:37])([H:38])[N:18]2[C:22]([C:24]([C:25]([C:26]([C:23]2([H:41])[H:42])([H:47])[N:19]([H:33])[C:10]3=[C:9]([N:17]([C:5]4=[N:3][N:4]=[C:6]([C:8]4=[C:7]3[H:27])[C:20]([H:34])([H:35])[H:36])[H:32])[H:28])([H:45])[H:46])([H:43])[H:44])([H:39])[H:40])[H:31])[F:2])[F:1])[H:29]" total_charge=0 REF_energy=-32948.774825046254 config_type=PubChem pbc="F F F"
F       -1.96401689       7.53234388      -1.22370885       0.37883498      -1.07965633      -0.13806206
F       -3.25072262       5.82440617      -3.00412057      -0.21579619       0.15852246       0.15317860
N        1.53479924      -3.88984630       5.20308449      -0.45942829      -0.92252893       0.62043160
N        1.96471085      -2.77909396       5.95492413       0.46448882      -0.43766737      -1.08064004
C        1.50674315      -3.55907486       3.94640877       0.03206247      -0.52231751      -0.16843766
C        2.27672710      -1.79838369       5.14488890      -1.25627850      -0.59003852      -0.30275457
C        1.79321399      -1.59520815       2.56995036       0.04576833      -1.00278994      -0.35739479
C        1.87777414      -2.18950364       3.80573227       0.65812014       0.92177921      -1.62087011
C        1.20814063      -3.75517366       1.55286862      -0.23524888       0.60411737       1.82473429
C        1.41941258      -2.40389058       1.40756335       0.38073405       0.03358636       0.05353395
C       -0.85044954       5.64997007      -0.21059833      -1.15377142      -1.08675704      -1.34360211
C       -0.77825329       4.25857284      -0.08295284      -0.17031871      -0.20612477       0.04978962
C       -2.34348557       3.95298936      -1.87525008      -0.50074589       0.02633806      -0.34897177
C       -1.75456235       6.17830278      -1.16161690      -0.49316461       0.01633024       0.05881435
C       -2.51313827       5.33102943      -2.00981496       1.80168171       0.12014089       1.12452835
C       -1.55356405       3.38663532      -0.89951346       1.03306180       2.22224799       0.70842735
N        1.24203517      -4.36485908       2.82860496      -0.02599592       1.99249839      -0.10518804
N       -0.13836471       1.39118459      -0.87306127       1.04274447       0.31908048      -0.05987760
N        1.35622694      -1.91790364       0.08557384       0.61525480       0.09144584      -0.27717229
C        2.84971621      -0.53009055       5.62536766       0.50829350       0.40462936       0.33148843
C       -1.47228310       1.93399193      -0.69567583       0.15147811      -1.21655461       0.00552164
C        0.36070513       1.47346981      -2.28032253       0.73094383      -0.52681029       1.02623529
C        0.02157428       0.09395005      -0.19938622       0.77734748       0.78168010      -0.54097522
C        1.82209720       0.90104511      -2.37422130      -0.74696972       1.05688744       0.71213024
C        1.91332295      -0.48151944      -1.79529569      -0.59394193      -0.52212269       0.04400214
C        1.46087363      -0.50109587      -0.33436809      -2.03716414      -1.11289645      -0.43372493
H        2.07733562      -0.56530843       2.46067836      -0.09089708       0.29172563      -0.21430519
H        0.97090657      -4.27871988       0.63966902      -0.06814916      -0.75253877       0.50882699
H       -0.19516889       6.26231481       0.36453635      -0.01781031       0.54988449       0.29565248
H       -0.11684559       3.83751895       0.69645672      -0.43769132       0.21048753      -0.69848215
H       -2.84682629       3.27667524      -2.55230067      -0.23288400       0.20899104      -0.10578923
H        0.69640257      -5.17929265       3.03292562       0.12291865      -0.48742618      -0.25914859
H        1.10882290      -2.60950992      -0.66084132       0.41168384       1.33628447       1.31762151
H        3.30739405      -0.71660648       6.59783031      -0.06673344       0.04780267      -0.06830239
H        2.10472943       0.25049221       5.76660826      -0.04119891       0.06957901      -0.15157220
H        3.64065983      -0.16480134       4.96215822      -0.22744589       0.00723106       0.04148238
H       -1.77438710       1.73468532       0.33877923      -0.01642257      -0.17206436      -0.21977730
H       -2.16590545       1.40914866      -1.37038253      -0.24472266       0.09939778       0.14370155
H        0.33752438       2.50975038      -2.64111612       0.01736107      -0.21544172       0.43082522
H       -0.29716734       0.91663386      -2.94254682      -0.19450377      -0.38276739      -0.26990643
H       -0.66589425      -0.63853643      -0.57870767      -0.46842415      -0.64391950      -0.53628608
H       -0.24310849       0.19102331       0.85864063       0.19518502       0.21837671      -0.11735504
H        2.14871230       0.86513450      -3.40040729       0.05892550       0.27367042      -0.36385615
H        2.49583699       1.55998614      -1.79515049      -0.31128186      -0.10826644      -0.43201008
H        1.28114225      -1.14824364      -2.42176531       0.08445016       0.19752031       0.58129891
H        2.91059997      -0.89212844      -1.87181017       0.33752475       0.03254302       0.05141944
H        2.10733297       0.10886358       0.28301442       0.45784706      -0.30809708       0.13970605
23
Properties=species:S:1:pos:R:3:REF_forces:R:3 smiles="[H:5][C:1]([H:6])([H:7])[C:3]([H:11])([H:12])[C:4]([H:13])([H:14])[C:2]([H:8])([H:9])[H:10].[H:19][C:16]([H:20])([H:21])[C:17]([H:22])([H:23])[S:15][H:18]" total_charge=0 REF_energy=-17324.944888197922 config_type="DES370K Dimers" pbc="F F F"
C        3.78021979       3.96041989       0.40212002       0.13078951      -0.01879039      -0.05893756
C        0.30269000       3.28494024       2.04612994      -0.09906017       0.04142193       0.00761999
C        2.72103023       3.83854007       1.49712992       0.03431731       0.10645064       0.20285287
C        1.36188996       3.40683007       0.95112002      -0.08604482      -0.06411983      -0.25739509
H        4.74959993       4.27309990       0.82538003      -0.38346556      -0.13267990      -0.25637594
H        3.46590018       4.70709991      -0.34641001       0.19219127      -0.31337315       0.24583729
H        3.91407013       2.98961997      -0.10407000       0.00259515       0.47685516       0.14322583
H        0.16883999       4.25574970       2.55230999      -0.00748164      -0.43575999      -0.12051500
H        0.61702001       2.53826999       2.79464984      -0.24129448       0.34361262      -0.20955432
H       -0.66667998       2.97226000       1.62286997       0.37843159       0.12690875       0.27397234
H        3.05355024       3.09931016       2.25107002      -0.09997647       0.43810401      -0.22265213
H        2.60630012       4.81323004       2.00922990       0.08105345      -0.47947070      -0.09924102
H        1.02936995       4.14604997       0.19718000       0.14921520      -0.40877392       0.25359829
H        1.47661996       2.43212986       0.43901998      -0.08126800       0.56872684       0.09070130
S        3.17896986       0.21366000       0.34851000      -0.06573337      -0.39605200      -0.02646868
C        0.67910999      -0.16634001       1.55246007      -0.22525643      -0.01610383      -0.08415943
C        2.13990998       0.14995000       1.84079003       0.20530240       0.08326875       0.52948976
H        2.97493982      -1.06626999      -0.02917000       0.05844516       0.28266320       0.07758474
H        0.25505999       0.57670003       0.85626995       0.15381516      -0.39964454       0.31249334
H        0.09381000      -0.14687000       2.48714995       0.19557176      -0.03085511      -0.38539882
H        0.58464998      -1.16736007       1.09898996      -0.01504870       0.43239386       0.18710778
H        2.24160004       1.15910995       2.28429007      -0.03975843      -0.66591107      -0.21269768
H        2.57488012      -0.57647997       2.55391002      -0.23911259       0.45814989      -0.38947213
35
Properties=species:S:1:pos:R:3:REF_forces:R:3 smiles="[H:23][c:8]1[c:9]([c:11]([c:13]([c:12]([c:10]1[H:25])[H:27])[S:22](=[O:3])(=[O:4])[N:14]2[C:18]3([C:19]2([C:21]4([C:15]([C:20]3([C:16]5([C:17]4([C:7](=[O:2])[O:5][C:6]5=[O:1])[H:31])[H:30])[H:34])([H:28])[H:29])[H:35])[H:33])[H:32])[H:26])[H:24]" total_charge=0 REF_energy=-38345.5134009349 config_type=PubChem pbc="F F F"
O        2.16789963      -4.19202850       0.02749618      -0.13519303       1.31121759       2.37522787
O        2.13165071      -1.96920846       3.88672640       0.18532029      -1.33482410      -1.37848585
O       -0.41041646       1.50892593      -2.47374270      -0.16459651      -0.49767185       1.73972804
O        1.00300177       3.01638414      -1.17624519      -1.39017742      -1.03100354       0.49737224
O        2.21629169      -3.39015839       2.13647201       0.51581268      -1.87416735       0.89517154
C        2.01423194      -3.28478930       0.83668198      -0.11556869      -1.39584256      -6.13345161
C        2.02993574      -2.21979973       2.70352461      -0.47367267       4.46493391       3.28103133
C       -3.63416383       3.29751017       1.35047795      -0.32257672      -0.04645072      -0.62526028
C       -2.46349142       2.90586974       2.00938525      -0.55255535       0.42720633      -0.47058043
C       -3.71715495       3.27567007      -0.07014881       1.26773502      -0.63648653       1.20654374
C       -1.36083374       2.52881839       1.26818683       0.41132784      -0.48096071      -1.40622392
C       -2.62223861       2.84880307      -0.82187352       1.46297880      -0.29279884       0.40305415
C       -1.43173347       2.46594443      -0.14848301      -0.59729411       0.02113708       0.43399121
N        0.72019397       0.65161510      -0.22764651      -1.23870997      -0.08158122      -0.74065158
C        3.63255550      -0.66246019       0.50902582       0.81834979       0.28914692       1.09279027
C        1.58578791      -1.88035295       0.37508126      -0.56955414      -0.06306184       0.79095702
C        1.62311222      -1.13607333       1.71639731      -0.73150825       0.36053841      -0.34666096
C        1.97221877       0.25523677      -0.87532899       1.30698543       0.89656867       0.72236052
C        1.93642559       0.99256792       0.49636821       1.83249833       0.28133702      -1.68976184
C        2.60037615      -1.10663114      -0.49171350      -0.49656934      -0.79011248      -1.30924607
C        2.61967947       0.01287093       1.44108327      -0.29005153      -0.24033841       1.77055793
S        0.00187018       1.94036474      -1.15102110       1.37833135       2.03257289      -0.55373432
H       -4.48826358       3.60420730       1.97374477       0.39783891      -0.16822807      -0.60276459
H       -2.42947934       2.92023685       3.09506204       0.08123638      -0.00249673      -0.25860514
H       -4.59814117       3.48584558      -0.61721895      -0.82501337       0.45638026      -0.04922415
H       -0.44785485       2.24338915       1.76282038       0.11072588      -0.05059119       0.05291535
H       -2.60049794       2.82670524      -1.91673706      -0.33242563      -0.06823373       0.53247632
H        4.14751102      -1.49210808       1.04412027      -0.05020929       0.53264473      -0.57563230
H        4.34581663       0.09506421       0.13527860      -0.22655674      -0.68111612       0.02854926
H        0.57982479      -1.90105817      -0.08466367       0.69874066      -0.25159922       0.23372968
H        0.66046680      -0.69110260       2.02367332       0.43503185      -0.52678006      -0.02055132
H        2.35894670       0.77085828      -1.78928802      -0.76177811      -0.39889441       1.03553539
H        2.33996751       2.00126161       0.54951254      -0.72774695      -0.04257906      -0.31469311
H        2.99337222      -1.68339274      -1.34338806      -0.36601484       0.28397220       0.31410407
H        3.04433538       0.48221659       2.36758187      -0.53675791      -0.40936293      -0.93120317
4
Properties=species:S:1:pos:R:3:REF_forces:R:3 smiles="[H:3][C:2](=[O:1])[H:4]" total_charge=0 REF_energy=-3117.325640836138 config_type="DES370K Monomers" pbc="F F F"
O        0.63383925       0.29521933      -0.58302605      -0.91797233      -2.68909608       3.50550596
C        0.50566208      -0.40693975       0.45348242      -0.82515578       1.35946858      -5.18941627
H       -0.11965937      -1.27828979       0.67535341      -0.92672833      -0.03304482      -1.28190435
H        1.07424092      -0.29900452       1.27401233       2.67007253       1.36323352       2.96515236
49
Properties=species:S:1:pos:R:3:REF_forces:R:3 smiles="[H:25][C:7]1=[C:11]([C@:23]([C@@:22]([C@:21]2([C:10]1=[C:8]3[C:9](=[C:6]([C:5](=[O:2])[C:14]([C:15]3([H:35])[H:36])([H:33])[H:34])[H:24])[C:16]([C:17]2([H:39])[H:40])([H:37])[H:38])[H:48])([H:49])[C:18]([H:41])([H:42])[C:13]([H:30])([H:31])[H:32])([C:19]([H:43])([H:44])[H:45])[C:20]([H:46])([H:47])[O:3][C:4](=[O:1])[C:12]([H:27])([H:28])[H:29])[H:26]" total_charge=0 REF_energy=-27320.257555798773 config_type=PubChem pbc="F F F"
O        0.57395361       5.09225180      -1.48997114      -0.15318413      -2.42781559       0.28507815
O       -3.61302039      -3.94594333       3.04926183       2.55800953       2.83166519      -0.17328303
O        0.16866442       3.98905994       0.55520751       1.12710560       1.12379884      -1.48956359
C        0.38780651       5.08171703      -0.29520450       0.05807527       2.35195985      -0.95285694
C       -2.69603512      -3.11744330       2.73378112      -3.17818743      -3.59043806      -1.04067067
C       -2.43726871      -3.01294062       1.24861892      -1.07449518      -0.42750023       0.87439196
C        1.11651280       0.49145621       2.05000939       1.87631797       2.63493316       0.40873566
C       -0.74568997      -1.32758627       1.77059748       2.94359113       2.12906340       0.56846349
C       -1.47108910      -2.19687698       0.82512443      -0.09233907      -0.47315494      -0.16537591
C        0.24476119      -0.46800641       1.28492984       0.58708075       0.15938820      -1.08698636
C        1.83436086       1.67056121       1.51041635      -2.68728202      -5.37507980       0.76237647
C        0.43402970       6.58603813       0.19053950      -2.44864598      -1.19453373       0.51405099
C        3.86111643      -0.43358133      -0.06252936      -0.65866556      -1.53481480      -1.44880552
C       -1.71147988      -2.60266302       3.74632504      -0.34919190       0.79342785       0.50195837
C       -0.89288495      -1.33917950       3.37134005      -4.38620653      -0.54872713      -3.69218717
C       -1.13298247      -2.22410176      -0.64460836       1.00887214       1.83803235      -0.29792010
C       -0.61791799      -0.81881664      -1.07585929       0.60288861      -0.29969089       0.73477612
C        2.87011768      -0.06819425      -1.16937206       1.27536437      -1.62905519       0.29235371
C        2.74209549       2.85153629      -0.51703594       0.55359304       1.75050899      -0.05005818
C        0.30360451       2.67217614      -0.06451176      -0.92700597      -1.35273305      -0.48615640
C        0.69662516      -0.54266010      -0.22636983      -3.64066685       0.81140714       0.42396663
C        1.56301643       0.56358113      -0.83823035      -0.34849997       0.37580812       1.46170165
C        1.65699508       1.89335420      -0.00954143       0.85035130       1.46140620       1.86936469
H       -3.06728122      -3.66654155       0.53555483       1.15744058       1.18459379       1.52416496
H        1.24034234       0.21644431       3.14483883      -0.15069834       0.88408279      -1.41443083
H        2.40532090       2.36441900       2.15179493      -0.40016996      -0.69473762      -0.46571040
H        1.23014870       6.72871782       0.80041363       2.82588678       0.11480687       1.89176388
H        0.54945804       7.34060480      -0.60118744      -0.43071779      -1.04282671      -0.11286551
H       -0.37565515       6.86433746       0.87120121      -0.30396824      -0.17485802      -0.37791248
H        3.30012777      -0.73668978       0.79228243       0.09616346      -0.26370352       0.80502311
H        4.49921419      -1.26229451      -0.44247178      -0.51064952       0.36787834       0.44947583
H        4.51811458       0.33798857       0.12598028       1.17203623       1.78761872       0.92151098
H       -2.19364164      -2.52574656       4.74501421       0.30477242      -0.14805919      -0.76487738
H       -1.06414304      -3.46154258       3.74882700       0.64576308      -0.35981597       0.40812964
H       -1.46167049      -0.42451314       3.62979390       0.49574456      -0.51762252       0.11681958
H        0.03741162      -1.35326872       3.77965834       2.42969562       0.05768663       1.24996236
H       -1.87132428      -2.61668584      -1.30438039      -1.46294124       0.20879833       0.04566588
H       -0.37844536      -2.95127199      -0.88475332       1.01725391      -0.20525792       0.49980165
H       -0.49238024      -0.70879481      -2.15371845       0.42983023      -0.37242808       0.05438284
H       -1.32461367      -0.03903828      -0.82075367      -0.37931107       0.02968785       0.18087503
H        3.38471367       0.39553712      -1.95112584       0.79764432       1.36240422      -1.07296296
H        2.70253017      -1.04493091      -1.60800216      -0.81437214      -0.11670839      -0.32554624
H        2.68589999       3.83613111       0.01661678      -0.52063471      -0.74450349      -0.39679581
H        2.64634325       3.10630109      -1.58209536      -0.19014947      -0.25738662       0.29874994
H        3.80601551       2.67874577      -0.34376261      -0.20558748      -1.12306545       0.01557685
H       -0.39102737       2.00030854       0.51657297       0.26636830       1.08965009      -0.99946425
H        0.09883778       2.72618033      -1.13864563      -0.62634859       0.31109293       0.34443864
H        1.17077234      -1.47097895      -0.24946616       1.36590611      -1.23637352      -0.19828202
H        1.13932361       0.80252822      -1.79142020      -0.50218088       0.44799965      -0.49194519
28
Properties=species:S:1:pos:R:3:REF_forces:R:3 smiles="[H:28][c:16]1[c:19]([c:15]([c:18]([c:17]([c:20]1[c:12]2[c:14]([c:13]([n:7][c:11]([n:6]2)[H:25])[N:21]3[C:10](=[C:9]([C:8](=[N:5]3)[H:22])[H:23])[H:24])[H:26])[F:2])[Cl:3])[H:27])[C:4]#[N:1]" total_charge=0 REF_energy=-37338.16063236107 config_type=PubChem pbc="F F F"
N       -1.26765118      -3.28889272      -3.05482385       1.75604669       0.45369217       2.96494132
F        2.44847395      -2.01574037       2.48983159      -0.56795746      -0.27978792      -1.47397678
Cl       2.15942861      -4.94885156       1.85880234      -0.17388381       0.50576911      -0.14968653
C       -0.62735925      -3.11290143      -2.08059571      -1.76949147      -0.47966618      -3.37373644
N       -1.44722233       3.15948369       0.37871036       0.42777088       1.15538152       0.31890348
N        2.79676678       0.59428028       1.21725430       1.53628699       0.56999421       0.12231449
N        2.02857985       2.80714514       1.47213866      -0.05413427       0.95574507      -0.29939939
C       -2.09849308       4.32386639       0.39890227       1.19667915      -0.13894976       0.52891194
C       -1.31268380       5.36668493       1.01134797       0.05751093      -0.50705893       0.30363590
C       -0.11720333       4.77439405       1.37829687      -0.42519740      -0.22027490      -0.03536188
C        3.01995947       1.90839186       1.45007290      -2.72964792      -1.60966668       0.38507563
C        1.58598091       0.21543439       0.86826208      -0.36673379      -0.16668335      -0.83234225
C        0.78820064       2.45123126       1.08079889       1.22824308      -0.62749036      -0.47698734
C        0.56411045       1.13071151       0.70679473      -1.07851535       0.40376626       0.48332568
C        0.72460557      -3.87908647      -0.16768966       0.04494328       0.55760604       0.02537080
C        0.56631632      -1.52790139      -0.63001797       0.04952824      -0.26518816      -0.37837592
C        1.81818821      -2.26671741       1.31034412      -0.47741467      -0.82638614      -0.04825819
C        1.53738858      -3.60935829       0.93001898       0.13873302       0.66610114       0.34575135
C        0.22531232      -2.84396026      -0.97386119       0.79877009       0.28919199       1.46150148
C        1.32816287      -1.23045430       0.49852821       0.50415212       0.34543614       0.83558068
N       -0.23014728       3.43390419       0.96328445       0.65813150       1.06143493       0.70450833
H       -3.09981678       4.42131402      -0.00047252       0.22814844      -0.22998635       0.03319268
H       -1.64682433       6.38273384       1.24816134       0.32627754      -0.61777117      -0.29612188
H        0.75376753       5.20605995       1.95408406      -1.18672178      -1.00528465      -1.06963322
H        4.01567199       2.15477886       1.77345302       0.05757649       0.44717970      -0.13537888
H       -0.42884676       0.83543767       0.42631747      -0.11770471      -0.10568963      -0.16747181
H        0.45722228      -4.89204071      -0.38499061       0.04857421      -0.34758522      -0.05581521
H        0.27507364      -0.73298595      -1.30599115      -0.11156303       0.02355743       0.28229885
27
Properties=species:S:1:pos:R:3:REF_forces:R:3 smiles="[H:15][c:3]1[c:2]([c:5]2[c:7]([c:4]([c:6]1[N:8]([H:17])[H:18])[H:16])[N:9]([C:12]([C:13]([S:1]2)([C:10]([H:20])([H:21])[H:22])[C:11]([H:23])([H:24])[H:25])([H:26])[H:27])[H:19])[H:14]" total_charge=0 REF_energy=-24423.379826305732 config_type=PubChem pbc="F F F"
S       -0.02574793       0.99584427      -1.18742213       1.57616926       0.99739959      -1.78901122
C       -1.84735677       0.09668608       0.39460740      -1.49135641      -0.40090196       0.37841219
C       -2.33966205      -0.60474489       1.53368142      -1.47344145       1.45506558      -0.55947058
C       -0.08407126      -0.88898764       2.31441989       1.70515837       0.53044086       0.89625805
C       -0.49664448       0.34153786       0.30054573      -0.06487710      -0.43203896       0.64613133
C       -1.43052206      -1.08665690       2.49554171      -0.81369366      -1.22974248      -0.05688884
C        0.38263664      -0.06988648       1.28513970      -0.68947578      -1.19663500       0.99324388
N       -1.86237190      -1.82240484       3.60226395      -1.02591123       0.84581582      -0.20186190
N        1.71913030       0.29606085       1.29312070       0.06209728      -2.94245673       0.86090501
C        2.79142453       0.82480853      -1.65581748      -2.14837452      -1.99744372      -0.27210336
C        1.64167645       3.18237021      -1.34398029      -1.23306977      -1.68821648      -0.21043023
C        2.05545904       1.45369168       0.67022757       2.10370168       3.77900103      -2.03432464
C        1.69251348       1.61343803      -0.88622401       0.73755222       1.22859869      -0.33520855
H       -2.44856785       0.47678099      -0.51715527       0.48704656      -0.80143681       2.05525011
H       -3.46422074      -0.54652629       1.76348974       1.88935146      -0.60563293      -0.48636629
H        0.67175364      -1.21934698       3.09633448      -1.17296924       0.39787893      -1.06713047
H       -1.29089413      -2.39291070       4.15873386       1.31022971      -0.28669306       0.22824575
H       -2.79150698      -2.16845176       3.64142182      -0.62882218       0.12316220      -0.40696926
H        2.38039377      -0.49174354       1.22489204      -0.62670952       0.91978187       0.06370697
H        2.79374172       1.05152800      -2.72638605      -0.01688611      -0.15221645       0.20370108
H        3.78037026       0.90652990      -1.26112316       0.56681533       0.62936040       0.36400243
H        2.52613475      -0.28985349      -1.52018282       0.43273434       1.59871244      -0.46934698
H        1.58370509       3.41958406      -2.47046135      -0.99293336      -0.91439526       1.67968871
H        0.94708963       3.75174381      -0.66496227       0.55493674      -0.55857833      -1.14963729
H        2.60004356       3.52132537      -1.21492085       2.55315037       1.07815554       1.01562915
H        3.17795732       1.56558051       0.86197551      -1.37496374       0.17976457      -0.86639514
H        1.62532046       2.37178793       1.10002526      -0.22476204      -0.55778905       0.52217601
10
Properties=species:S:1:pos:R:3:REF_forces:R:3 smiles="[H:4][C:1]#[C:2][C:3]([H:5])([H:6])[H:7].[H:9][O:8][H:10]" total_charge=0 REF_energy=-5257.478714704729 config_type="DES370K Dimers" pbc="F F F"
C        1.02151000      -2.31408000      -0.88362998      -0.09135304      -0.08686709      -0.25272812
C        0.48021000      -1.34045005      -0.43143999       0.73182088       0.72206759       0.09524567
C        0.00000000       0.00000000       0.00000000      -0.57605526      -0.54545373      -0.19934571
H        1.49128008      -3.14247012      -1.38662994      -0.31244129       0.32636160       0.43639513
H        0.79550994       0.73916006       0.19340999      -0.18422251      -0.62315403      -0.16629441
H       -0.62849998      -0.08471000       0.90245003       0.25936794       0.09640579      -0.41488582
H       -0.62568003       0.36594001      -0.83140004       0.17345054       0.11372502       0.50133478
O       -0.90622997       5.64704990       2.02868009      -0.51069144      -0.64502202       1.13012030
H       -1.71841001       5.09541988       2.09446001       0.99913778       0.67560531      -0.02974422
H       -0.53713000       5.65482997       2.94080996      -0.48919349      -0.03349721      -1.10004372
26
Properties=species:S:1:pos:R:3:REF_forces:R:3 smiles="[H:9][C:4]([H:10])([H:11])[C:5]([H:12])([H:13])[S:2][S:1][C:3]([H:6])([H:7])[H:8].[H:22][C:17]([H:23])([H:24])[C:18]([H:25])([H:26])[S:15][S:14][C:16]([H:19])([H:20])[H:21]" total_charge=0 REF_energy=-49835.67949648149 config_type="DES370K Dimers" pbc="F F F"
S        4.62700987      -4.85958004      -1.43700004       0.57168374       0.29037653       1.93849040
S        5.51258039      -3.49995994       0.05593000      -0.64068607      -1.25223923      -0.90874889
C        4.73840999      -4.06591987      -3.02500987      -0.06984322       1.44899750      -0.62120129
C        3.53561020      -1.56668007      -0.22981000       0.44006685       0.04826909       1.02398946
C        4.13044023      -2.60609007       0.81858998      -1.60081045       1.15795688      -1.52950842
H        5.59788990      -3.37465000      -3.01907992      -0.38912210      -0.34442336      -0.12659332
H        3.81818008      -3.48166990      -3.19364023       0.49041554      -0.19298088      -0.12895597
H        4.86300993      -4.77503013      -3.86063004      -0.01300780       0.03541357       0.68176936
H        4.31977987      -0.83756995      -0.49452001      -0.39680962      -0.28892209       0.02256950
H        2.71317005      -1.03147006       0.27394000       0.24700668      -0.11071789      -0.33490164
H        3.14581990      -2.01676988      -1.15829992       0.27415054      -0.09685753       0.60268449
H        4.50393009      -2.04912996       1.69936001       0.11991102      -0.45109785      -0.54128641
H        3.25040006      -3.19507002       1.14120996       1.06266042      -0.22694647      -0.07421937
S        1.30465996      -5.38049984       3.20800018       0.13692348       1.10551910       0.65942420
S        0.86740005      -4.14588976       1.63573992       0.82887780       0.04227868      -0.45235467
C        0.97055006      -7.00555038       2.61397004      -0.50510594      -1.22208782      -1.23557758
C       -1.76726997      -4.69682026       1.12672996      -0.27265369      -0.78339895      -0.81400707
C       -0.86778998      -3.72330999       1.81719005      -0.12171391       0.77224415       1.68745480
H       -0.07441000      -7.32496976       2.76441002       0.47301384       0.20051563       0.00778448
H        1.63780999      -7.76959991       3.04711008      -0.17412302       0.58816801      -0.04350008
H        1.16619003      -6.94109964       1.53036999      -0.10187495      -0.42073509       0.43930871
H       -1.78372001      -4.40082025       0.06432000      -0.16318991      -0.48587655       0.31220104
H       -2.80672025      -4.76203012       1.48991000       0.50627001       0.28150105      -0.01174979
H       -1.30335998      -5.69429969       1.20688999      -0.48513541       0.31987273      -0.16237935
H       -1.03930998      -2.68487978       1.47412002       0.33529094      -0.52458846       0.19322555
H       -0.93593001      -3.72832012       2.92207980      -0.55794273       0.10933247      -0.58522094
20
Properties=species:S:1:pos:R:3:REF_forces:R:3 smiles="[H:12][C:4]([H:13])([H:14])[N:2]([H:8])[C:6]([H:17])([H:18])[C:7]([H:19])([H:20])[C:5]([H:15])([H:16])[S:1][C:3]([H:9])([H:10])[H:11]" total_charge=0 REF_energy=-17728.306931404095 config_type="DES370K Monomers" pbc="F F F"
S        1.04853487       1.48196697       1.01665163       0.69604698       0.45645502      -0.30100006
N       -1.33332848      -2.20798540      -1.18618226      -2.09233786      -1.19223579      -0.29955444
C        2.23137665       2.59942722       0.20162882      -0.68940999       0.20774287      -0.88642120
C       -1.71881199      -3.17922544      -2.22519207       1.10393810       0.14167440       0.74034538
C        1.35743260       0.08888048      -0.10788210       0.22280237      -0.18604739       0.03960502
C       -0.02489020      -1.67168248      -1.34722125       0.11101544      -0.26074224       1.03553545
C        0.01187230      -0.58753383      -0.30020508       1.54897996       0.07622069      -0.22344835
H       -2.04702592      -1.46974563      -1.09500587       0.74664369      -0.56152156      -0.15558909
H        1.82840729       2.86722898      -0.81237948       0.38545293      -0.04223287       1.02513644
H        3.15347457       2.06665254       0.04999507       0.41084012      -0.11795045       0.05998948
H        2.42972040       3.48996734       0.78973591      -0.17539744      -0.00410102       0.01477800
H       -1.73404717      -2.70968246      -3.20175528      -0.01272550      -0.07292519      -0.50755221
H       -0.91860807      -3.94694424      -2.19621873      -0.64733683       0.20797568      -0.29829840
H       -2.67985105      -3.64862823      -2.03424406       0.02489617       0.07263314       0.16769264
H        1.70778656       0.45733988      -1.08489454      -0.00578305       0.04163592       0.46198681
H        2.15050029      -0.55790847       0.33392161      -0.69319872       0.29788375      -0.42974888
H        0.74520057      -2.45442987      -1.19579458      -0.42593826       0.31453106      -0.04203273
H        0.10579619      -1.23664570      -2.32094311       0.43315961       0.29694845      -0.77200858
H       -0.32019722      -0.95362985       0.66047620      -0.38780635      -0.17286735       0.05958528
H       -0.64607906       0.16643876      -0.68909466      -0.55196296       0.49579884       0.30791675
42
Properties=species:S:1:pos:R:3:REF_forces:R:3 smiles="[H:29][c:11]1[c:13]([c:19]([c:14]([c:12]([c:18]1[C:6](=[O:1])[O:4][c:16]2[c:9]([c:15]([c:20]3[c:17]([c:10]2[H:28])[O:5][C:7](=[O:2])[C:25]([C:24]3([H:40])[H:41])([H:42])[C:23]([H:37])([H:38])[H:39])[H:33])[H:27])[H:30])[H:32])[N:22]([H:36])[C:8](=[N:3][H:26])[N:21]([H:34])[H:35])[H:31]" total_charge=0 REF_energy=-31620.929388982255 config_type=PubChem pbc="F F F"
O       -0.59612129      -0.06001840       2.11423757       0.89310906      -0.65895640      -1.61124748
O       -0.95047460      -3.61700199      -4.84150359       0.09776565       2.43599015       2.71619337
N       -0.68186257       7.56400301       4.96291973       0.43835933       0.63093359       0.72662703
O        1.07021274       0.56887800       0.59914586      -1.15682087       1.27658385       1.49276580
O       -0.38112906      -2.22955654      -2.95952842      -1.46838810      -0.60666081      -2.28487502
C        0.04750254       0.78739967       1.53407587      -0.59183667      -1.09293658       1.53977400
C       -0.27285049      -3.34877155      -3.85602519      -0.24816956      -0.17607672      -1.50948466
C       -0.12838731       6.39529039       4.78684713      -3.31510607       3.71740741      -0.30677305
C        1.93297484      -1.67192481       0.49344365       1.13432731      -1.82984863       0.13391252
C        0.40075716      -0.86062918      -1.05704353      -3.06770703      -1.87130625      -4.88101961
C       -1.17995022       2.46177091       2.96503713       1.53780460      -1.01721577      -0.14270659
C        0.77240177       3.16389062       1.53709772      -1.64786207      -0.96097922      -0.63933484
C       -1.15724871       3.74296548       3.48158171      -0.60183257      -0.74720335       0.13031203
C        0.62859462       4.42424681       2.05219259       2.19288434       0.63935491      -2.04965160
C        1.90784790      -2.92446110      -0.13826422      -0.51873092      -0.92703296      -1.45306323
C        1.13159575      -0.66538796       0.00959953       1.09727012      -0.50203445       1.59623687
C        0.39212064      -2.10248325      -1.84843347       1.46579142      -0.27869887       2.55897064
C       -0.16985861       2.15988758       2.00407090       1.97243554       1.89084136      -0.97149794
C       -0.23123238       4.65806200       3.05038192      -1.15090450       0.76346551       0.70521259
C        1.12406936      -3.19382332      -1.35000441       1.00392484       0.40358288       0.71603537
N        0.37025157       5.62416269       5.76423694       0.56533382      -1.71924246      -0.90749094
N       -0.28090326       5.96890642       3.49410488       0.92284262      -0.65312423       1.27713429
C        2.16398420      -3.80198572      -4.22179506      -0.50937767       0.74579987      -2.75510413
C        1.08519425      -4.57351825      -2.14145515      -0.70438592       0.95616301       0.72963216
C        0.87001281      -4.24210021      -3.63548896       0.86812961      -1.38321803       1.99759869
H       -0.67159484       8.07153084       5.88330605       0.51577592      -1.43356005      -1.12184943
H        2.61693670      -1.46472047       1.31073167      -0.28354187      -0.24431783       0.02165596
H       -0.30000911      -0.08260468      -1.32189176       0.05965669       0.03423065      -0.40136470
H       -1.79213235       1.64499571       3.41347005       0.40022043       0.92609830      -0.85717190
H        1.45832898       3.03880741       0.67091387      -0.64525516      -0.48173889       1.01501431
H       -1.90705559       4.09302809       4.15747883      -0.22213110      -0.06558927       0.50052398
H        1.15096738       5.33064176       1.64636507      -0.12911690      -1.28588506       0.46908708
H        2.48656633      -3.82162902       0.19734561      -0.36014536       1.29966747       0.01994154
H        0.90213200       4.83264162       5.39340880       0.14736045       0.51527058       0.98140874
H        0.70232742       6.22492267       6.48394825       0.61711281      -0.42024766       0.67875877
H       -0.60206006       6.64858772       2.86393668      -0.41349454       1.01194427      -0.41868833
H        2.85479929      -4.62079284      -4.14577529       0.27835968      -0.40960230      -0.61586421
H        1.94369211      -3.41324780      -5.26665447       0.67442285      -1.11365540       0.83164818
H        2.65870621      -2.98984787      -3.80869100       0.54284921       1.63963145       1.47713065
H        2.00421955      -5.21828935      -2.10730121      -0.89490555       0.80060335       0.60412610
H        0.18491652      -5.12129161      -1.75391052       0.99932848       0.18996655      -0.25837917
H        0.66720053      -5.15509078      -4.19066903      -0.49864034       0.00401961       0.26785053
45
Properties=species:S:1:pos:R:3:REF_forces:R:3 smiles="[H:24][c:7]1[c:9]([c:12]([c:10]([c:8]([c:11]1[C:15]([H:31])([H:32])[H:33])[H:25])[C:5]2=[C:6]([C:22]3([C:19]([C:17]([C:21]([C:18]([C:20]3([H:43])[H:44])([H:39])[H:40])([H:45])[O:3][C:14]([H:28])([H:29])[H:30])([H:37])[H:38])([H:41])[H:42])[N:13]([C:4]2=[O:1])[H:27])[O:2][H:23])[C:16]([H:34])([H:35])[H:36])[H:26]" total_charge=0 REF_energy=-26687.976319531615 config_type=PubChem pbc="F F F"
O       -2.29344843      -1.15027115      -1.50882146       0.81163430       0.28173765      -1.28063415
O        1.33448966       0.81796743       0.78068315       1.16596687       0.88816467       0.64415273
O        3.03948142      -0.56182525       2.12602153       1.55616363       0.77112266       3.60040326
C       -1.24024734      -0.92936418      -0.92915557      -2.78543056      -0.38114051       3.07197960
C       -0.64368019       0.35359519      -0.55513546       3.94675575      -2.23146563       2.98534320
C        0.38371182       0.01849844       0.41824389      -3.52445212      -0.36248029      -2.16024982
C       -0.39822457       4.43023683      -1.66388796       0.23273959       0.09690037      -1.42446990
C       -1.00546048       2.75662209      -0.09896812       0.75695608       0.25888845       0.57221543
C       -0.37867907       3.43532517      -2.65691016       0.20756029       0.24898213       0.30414843
C       -0.74521444       1.70200279      -1.02129553      -0.71108110       1.95885364      -0.62907483
C       -0.75096510       4.11496355      -0.35045335      -0.57444577      -0.45208295      -1.64967091
C       -0.53100810       2.04239657      -2.35153077       1.57626643       2.31074705      -0.69393637
N       -0.78575847      -1.91783498      -0.01038042      -0.78392738       0.60060614      -0.77845805
C        3.76180532       0.32436461       3.11459877       1.72096236      -1.65938006      -0.18792177
C       -1.10444209       5.28085377       0.50449852      -0.24259550       1.90426200       0.98696779
C       -0.11406843       1.04298087      -3.40124128      -0.21156680       0.36618515       0.02399846
C        2.18293538      -2.73710821       1.89790907       0.93132440       2.14094416      -0.72442634
C        0.90921520      -0.96859465       3.37045958       0.30263090      -0.36784285      -1.88238314
C        1.39949056      -2.24299286       0.60781385       5.27613474      -1.55084397       0.84337609
C       -0.25331579      -1.54296634       2.46675994       3.04826981      -0.38937923      -1.57648147
C        2.32779934      -1.58253978       2.90452196      -2.93498776       0.56497833      -2.16212046
C        0.23835438      -1.43296692       0.92292722      -3.36771740       0.58426700       0.17237378
H        2.07303621       0.41075680       1.33489259      -1.04975249      -0.24552852      -0.47671287
H       -0.16468970       5.50208141      -1.94635317      -0.46306253      -1.45622062       0.33233615
H       -1.28091309       2.48797789       0.91579177      -0.07057154      -0.13665924      -0.08615156
H       -0.17827538       3.78753044      -3.69130752      -0.08399571      -0.65148389       0.77223932
H       -1.52372644      -2.59378622       0.23569759       0.88297857       0.72932994      -0.04007306
H        4.89378121       0.21014061       2.99462034      -1.62212261      -0.02089946      -0.21402615
H        3.53202011       1.34841134       2.97256662      -0.49432510       0.85596322      -0.44021573
H        3.58343222       0.07703110       4.18546083      -0.38945904      -0.11134587      -0.98293221
H       -1.29399190       6.27425911      -0.03751812      -0.40659916      -1.86156772       0.07023407
H       -0.31368778       5.70691731       1.13440468       0.22252525      -0.93389077       0.34471498
H       -1.96199486       5.03141929       1.14967104       0.32661954       0.36105051      -0.21159734
H       -0.14534525       1.43781193      -4.41961620      -0.11612250       0.24090250       0.25737740
H        0.92068022       0.67837710      -3.25891850      -0.70933520      -0.09464775       0.25698045
H       -0.87546120       0.29625368      -3.33024690       0.08395488      -1.19394853      -0.28660205
H        1.76671864      -3.58359859       2.32005348      -1.34325356      -1.52239797       1.08356823
H        3.23143031      -3.05040930       1.74777975      -0.45488388       0.23338587      -0.73006731
H        0.70498528      -1.29971514       4.34548905      -0.10555629      -0.27724952       1.46378261
H        0.90707316       0.15857198       3.37996533       0.12659582      -1.24882265      -0.17063352
H        2.19016864      -1.50505111       0.17518460      -1.34590830      -2.02242928      -0.32672655
H        1.13919612      -3.19743273       0.04442333       0.58772458       1.86781076       0.21623170
H       -0.41163812      -2.63372801       2.65736892       0.06891358       0.98659866      -0.00967381
H       -1.13629243      -0.99531553       2.59798481      -1.27647693       0.62752343       0.11212584
H        2.82369806      -1.98887084       3.73892309       1.23152605       0.29491385       1.01196287
50
Properties=species:S:1:pos:R:3:REF_forces:R:3 smiles="[H:25]/[C:4](=[C:6](/[H:27])[C:11]([H:33])([H:34])[C:10]([H:31])([H:32])[O:1][H:22])/[C:5](=[C:7]([C:9]([H:28])([H:29])[H:30])/[C:15]([H:41])([H:42])[C@:18]1([C@:19]([C@@:20]([C@@:21]2([N:8]1[C:12]([C:13]([C:14]([C:17]2([H:46])[H:47])([H:39])[H:40])([H:37])[H:38])([H:35])[H:36])[H:50])([C:16]([H:43])([H:44])[H:45])[O:3][H:24])([H:49])[O:2][H:23])[H:48])/[H:26]" total_charge=0 REF_energy=-25749.769165992624 config_type=PubChem pbc="F F F"
O       -2.67980096      -0.32215593      -5.56772516       1.63695899       0.28905227       0.28939543
O       -1.09544633       0.09200155       2.07382622       0.82260016       0.11371806       0.35875652
O        2.18583538      -1.41784177       2.01952400       0.02797525       0.23211653       0.20274546
C       -1.76736162       0.11582437      -2.15181539       1.61573135      -2.71561227      -1.38368017
C       -0.48009525       0.44241856      -1.49808118      -1.31363114       2.79550530       0.99925715
C       -1.88060830      -1.08207557      -2.84229133      -0.86743077       2.40027757       1.39600989
C       -0.22151498       1.62997582      -0.83666978      -0.21569510      -2.41220937      -1.62508758
N        2.26897862       1.35946544       2.02443244       0.41972046      -0.30969758       0.00546306
C       -1.20045051       2.76735832      -0.86275802       0.57387622       0.85194835       0.97691776
C       -3.01948521      -1.58590195      -5.01254127      -0.78240683       0.09197328       0.45849643
C       -3.17404959      -1.45918963      -3.48989627       0.09688253       0.94852987      -0.18701633
C        3.07446005       2.58430077       2.09495499      -0.09347385      -0.64131986      -0.26735527
C        4.41842844       2.32566490       2.79103496      -0.90168625      -0.21652086       0.23842770
C        4.16346361       1.73580196       4.18639638      -0.24830328      -0.45243585       0.29618669
C        1.10999658       1.72671547      -0.13202367      -0.58993209      -0.60793558       0.02687977
C        0.62368262      -1.32312546       3.89481833       0.41364360      -0.74878937       0.07043692
C        3.38607576       0.37367938       4.06496765       0.18581631       0.50663925      -0.65424837
C        0.93657570       1.39781322       1.36492362       1.31689077       0.13805795       0.00261863
C        0.30786607       0.00335225       1.69410899      -0.84909265       0.67944439      -1.12118772
C        1.27397116      -0.58594988       2.73939087       0.34589435       0.67060227       1.46046125
C        2.06136038       0.65005953       3.30298807       0.36186940      -0.18084819      -0.94915046
H       -1.81721208       0.01890918      -5.17449424      -1.81824700      -0.95533956      -0.60043636
H       -1.64988420       0.30825007       1.30886915       0.71602561      -0.15458965       0.15772537
H        2.74951556      -0.79265973       1.52900036      -0.27125921      -0.24931667       0.20152674
H       -2.59888408       0.80351075      -2.15943382      -0.00808264      -0.00893863       0.17837928
H        0.27242368      -0.30717120      -1.48552559       0.42236710      -0.56579824      -0.11844836
H       -1.07203386      -1.78785846      -2.92775414       0.35777897       0.01065069       0.19764937
H       -0.67062340       3.73288514      -0.82847259      -0.04162409      -0.33459626      -0.03620047
H       -1.87721918       2.80540659       0.00060340       0.14818518      -0.23896456      -0.05948473
H       -1.80431340       2.79181959      -1.74349425      -0.32173132      -0.18089949      -0.53857957
H       -2.37757108      -2.42587445      -5.31686732       0.38236434       0.46355182       0.21094011
H       -4.00154779      -1.87718413      -5.39667890       0.08999361       0.41747175      -0.23261935
H       -3.90087268      -0.64475367      -3.25016973       0.36869198      -0.72726554      -0.43326294
H       -3.56397102      -2.37346981      -3.08050630      -0.14379446      -0.55046984       0.18235953
H        3.26284291       2.97268941       1.09147038      -0.16256647      -0.13595048       0.05885101
H        2.53617027       3.35242607       2.64962818      -0.12312629       0.31923819       0.18509255
H        4.93971207       3.27157881       2.83029367       0.21326495       0.22562387       0.20226398
H        5.04515697       1.63605645       2.21530785      -0.24865883       0.05168093       0.01325995
H        3.57517578       2.41986777       4.85069563       0.36417995      -0.36814405      -0.75319760
H        5.12517645       1.60681298       4.68856051      -0.13755794      -0.22273527       0.03297954
H        1.49284401       2.73353197      -0.24388198       0.26826347       0.11909504       0.02346145
H        1.81307127       0.99755990      -0.59065399      -0.36805050       0.56560376       0.39836269
H        0.21349727      -0.63631068       4.65251162       0.10990703      -0.27180591      -0.51561436
H        1.33829500      -2.01701591       4.38775780      -0.26113178       0.64198571      -0.35243296
H       -0.15818701      -1.93651364       3.48515799      -0.53889044      -0.26408562       0.13754674
H        3.21788075      -0.05918584       5.06269457      -0.19494133       0.20811779      -0.41272274
H        3.96952488      -0.37098811       3.48565056      -0.20281483       0.53484037       0.34723160
H        0.34760874       2.19820513       1.80887963      -0.44924250      -0.01019511       0.25430190
H        0.33416783      -0.65095434       0.80479472       0.25791321       0.32692504       0.48354430
H        1.42623415       1.26109870       3.94735362      -0.36085809      -0.07764002       0.19154035
12
Properties=species:S:1:pos:R:3:REF_forces:R:3 smiles="[c:7]1([c:10]([c:8]([c:12]([c:9]([c:11]1[Cl:5])[F:3])[Cl:6])[F:2])[Cl:4])[F:1]" total_charge=0 REF_energy=-51953.79753745271 config_type=PubChem pbc="F F F"
F       -1.35731218       0.00428065       2.49791410       1.58682496       0.00893050      -1.25081055
F       -0.23709903       1.98243990      -1.73168466       0.58333307      -1.11995871       1.74270963
F        3.10735323      -0.41054074       0.76710263      -0.41926923       0.46186258      -0.05593333
Cl      -2.45039270       1.48735675       0.26038532       1.06887469      -0.30611654      -0.09589724
Cl       1.38212570      -1.12700245       3.10713722      -0.08042034       0.37850660      -0.78906215
Cl       2.63579275       1.28989424      -1.71339891      -0.31130875      -0.29560748       0.65202806
C       -0.40383867       0.20077770       1.53644671      -0.04026690       0.69765617      -0.76682536
C        0.14637368       1.26272501      -0.62460671       0.43140175       0.12141093       0.01895319
C        1.87430325       0.09157722       0.66958030      -1.08565875       0.19998010      -0.48056716
C       -0.77473328       0.93614652       0.36984821      -0.94270824      -0.03198572       0.72363264
C        0.92760088      -0.23749468       1.67047872      -0.49031717       0.18779460       0.28526723
C        1.49995305       0.86996632      -0.45907626      -0.31143348      -0.30634284       0.01672912
32
Properties=species:S:1:pos:R:3:REF_forces:R:3 smiles="[H:13][C:5]([H:14])([C:6]([H:15])([H:16])[C:4]([H:11])([H:12])[O:2][H:8])[C:3]([H:9])([H:10])[O:1][H:7].[H:29][C:21]([H:30])([C:22]([H:31])([H:32])[C:20]([H:27])([H:28])[O:18][H:24])[C:19]([H:25])([H:26])[O:17][H:23]" total_charge=0 REF_energy=-16820.42883512758 config_type="DES370K Dimers" pbc="F F F"
O        0.00000000       0.00000000       0.00000000      -0.42924708      -0.59081843      -2.91273095
O       -0.87974000       4.59080982      -0.81340003       0.13034612      -0.02490842       0.00054226
C        0.25200000       0.70188999       1.15152001       1.29527501       0.35192874       0.94878722
C       -1.31015002       4.25134992       0.54264998       0.06522070       1.01373096      -0.59997977
C        0.24189999       2.20739007       0.88673002       0.00382861       0.95795892       1.12827822
C       -1.20720005       2.72824001       0.84972000       0.29406230       0.12493133      -0.14382294
H        0.68706000       0.28259999      -0.63913000      -0.87571160      -0.43617662       0.47161168
H       -0.73014998       5.55879021      -0.84560001      -0.21534134      -1.15299706       0.11228633
H       -0.49495998       0.45396998       1.93001008       0.28310966       0.04241648      -0.56949320
H        1.21579993       0.24865000       1.45336008      -0.11306385       1.08129384       0.83418047
H       -2.33642006       4.66177988       0.60405999       0.32144522      -0.64694572       0.47217435
H       -0.64796996       4.91055011       1.13628995      -0.43825343      -0.90684666       0.63278041
H        0.70055997       2.65148997       1.79107999       0.04378207       0.07931642      -0.51311480
H        0.76667005       2.62241983       0.00479000       0.09389835      -0.88845092       0.34903120
H       -1.77214002       2.12276983       0.11508000       0.10050405       0.57137450       0.29790559
H       -1.57132006       2.45801997       1.85959995      -0.44236900       0.67003565      -0.57732236
O        2.41272998      -2.84590006       3.82425999      -0.13914559      -1.62132755       1.55187674
O       -1.15528000      -2.47529006       0.02018000      -0.13232040       0.67128020       0.30748445
C        2.43239998      -3.25058007       2.49586010       0.31466317       1.40767293      -2.38394924
C       -0.22019999      -3.43183016      -0.38835001      -0.57481890      -0.60672867      -0.47066335
C        1.06646001      -3.40469980       1.81788993      -0.33246456      -1.70849545      -0.66696474
C        1.12205005      -3.21949982       0.24673000       0.89785537       0.99251778       1.12776252
H        2.43505001      -3.69821024       4.30743980      -0.16407160       1.19647720       0.09624944
H       -0.71323997      -1.61149990      -0.11722000      -0.59414181      -0.40608248       0.25660700
H        2.83359003      -2.37560010       1.94913995       0.43570385      -0.42177107       0.20130870
H        3.13204002      -4.09426975       2.34047985      -0.51403737       0.25912436      -0.08643209
H       -0.21625999      -3.40868997      -1.49510002       0.55328540      -0.29511443       0.33666428
H       -0.57091004      -4.43360996      -0.07389000      -0.09822296       0.44632124      -0.24825551
H        0.68140995      -4.43392991       1.95151996      -0.03019839       0.41950480       0.34386027
H        0.34005001      -2.71059990       2.28262996       0.47172839      -0.28977225      -0.46624479
H        1.43993008      -2.16263985       0.16053000      -0.08309055      -0.42119722      -0.57348929
H        1.85982001      -3.83846020      -0.29919002      -0.13003068       0.12789577       0.74394446
29
Properties=species:S:1:pos:R:3:REF_forces:R:3 smiles="[H:26][c:15]1[c:17]([c:20]([c:18]([c:16]([c:19]1[C:8](=[O:2])[O:6][C:14]2=[C:13]([C:12](=[C:11]([C:10](=[C:9]([C:7]2=[O:1])[H:22])[H:23])[H:24])[H:25])[I:5])[H:27])[H:29])[N+:21](=[O:3])[O-:4])[H:28]" total_charge=0 REF_energy=-34487.93719538435 config_type=PubChem pbc="F F F"
O        0.94680645       0.91320877       3.21181395      -2.16143047      -1.45146132      -0.24579583
O        2.07445755      -0.18129060       0.93270411       1.09495799       0.76657833      -0.30683076
O       -2.70569131      -3.60381505      -3.05173061      -0.38466298       0.31685376       0.37256453
O       -1.66091583      -5.11008213      -1.92665598      -0.31800637       2.14201257       0.56181592
I        0.32651358       4.21115877      -1.32561753       0.69759733      -0.78834260       2.36460365
O        0.59324343       1.34587618       0.32825739      -0.73123969       2.27074603      -0.31745940
C        1.40190282       1.86293378       2.65653970       0.70369549      -0.13131167      -0.71539548
C        1.13963016       0.16417321       0.25211992       1.99169159      -1.60952584       3.35388768
C        2.55337812       2.40872135       3.33208086       0.35381264      -0.17787138      -0.61651685
C        2.83332326       3.69215777       3.37596943       0.63884246       0.86447937       0.09047033
C        2.02883365       4.74195863       2.86952474      -4.35542380       1.58789093      -3.27841504
C        1.05457344       4.68950607       1.80019011       3.32378564      -0.54506564       1.70805750
C        0.98537030       3.60132243       0.82341682      -1.17198505       1.04350577      -0.19448944
C        1.05156465       2.32715465       1.22398468      -0.24296014      -1.05487334      -0.31527298
C       -0.40655420      -0.59806381      -1.45617471      -2.57486961      -1.55844932      -1.76175613
C        0.37314919      -2.11548422       0.07761159       0.54277875      -2.85466860       2.67606439
C       -1.20835433      -1.58450554      -2.04798362      -0.48752010       0.15468909      -2.08782454
C       -0.44785074      -3.08920834      -0.43709091       0.87667429      -0.58747637       0.28156044
C        0.39037155      -0.87271271      -0.37799291      -1.50823910       2.23912722      -2.92404031
C       -1.16995571      -2.86096666      -1.56053278      -0.16505025       0.51732130       0.83405039
N       -1.93946884      -3.91300247      -2.16114185       0.31747605      -2.84903147      -1.80937678
H        3.12698104       1.65719011       3.87484266      -0.07263425       0.33656352      -0.27548529
H        3.71756460       3.92718293       3.89750602       0.76584193       0.70466125       0.76511813
H        1.91234877       5.75643064       3.29781391       0.85561242      -0.98593177       0.38620127
H        0.41242464       5.54989054       1.67153003       0.25612687      -0.00631662      -0.22848736
H       -0.69455252       0.28398370      -1.92831061       0.81349422       2.14800937      -0.02225519
H        0.93721946      -2.36193392       0.97764810      -0.03681807       0.13052384      -0.36783321
H       -1.83591483      -1.45479546      -2.99580524       1.04189619       0.35209431       1.70023917
H       -0.44425914      -4.04084966       0.01162150      -0.06125135      -0.97707869       0.37917553
46
Properties=species:S:1:pos:R:3:REF_forces:R:3 smiles="[H:32][c:12]1[c:14]2[c:16]([c:15]3[c:13]([n:4]1)[C:11](=[C:10]([S:6]3)[H:30])[H:31])[N:18]([C:9](=[N:3]2)[C@@:26]([H:46])([C:25]([H:43])([H:44])[H:45])[O:5][H:27])[C:24]4([C:21]([C:19]([C:23]([C:20]([C:22]4([H:39])[H:40])([H:35])[H:36])([H:41])[N:17]5[C:8](=[N:2][C:7](=[N:1]5)[H:28])[H:29])([H:33])[H:34])([H:37])[H:38])[H:42]" total_charge=0 REF_energy=-40836.132401231676 config_type=PubChem pbc="F F F"
N        2.22411301       2.32378354       4.40194847      -0.97250855      -0.00658213      -0.20413171
N        3.96719482       3.69663121       4.78830912      -0.96436160      -0.43127504       1.70955132
N       -1.64257930      -0.52358816      -2.38878462       1.04847669      -0.29711966       0.79494818
N       -2.39516947      -3.35647294      -0.15304730      -0.35227640      -0.26723515      -1.09284193
O       -1.78056763       1.77201404      -3.62183425       1.17658196      -0.05018560       0.87568909
S        0.27835079      -1.82747267       2.28640487      -0.62398170      -0.91412377      -0.30368310
C        2.94546725       2.90859415       5.32830860       0.56353271       0.36187330      -0.46690715
C        3.76759984       3.59399535       3.51084258      -0.02764950      -0.24709429      -0.23819137
C       -0.70361898       0.33405193      -2.04018829      -1.30285987      -0.42632971       0.01809956
C       -0.55884347      -3.21742580       2.97726252      -1.59928283      -0.66177965      -2.06197359
C       -1.46729336      -3.77045343       2.05487825       1.49636530       0.43184533       2.57226339
C       -2.43479154      -2.62479255      -1.26088689      -0.27520178      -0.14711902       0.81867264
C       -1.49108884      -3.08118961       0.81101685      -0.34954812       0.29553619      -0.50547888
C       -1.59210107      -1.52529499      -1.40999017       0.31596392       0.51782715      -0.11177837
C       -0.57939861      -2.02249405       0.75004727       0.51020334       0.82699553       0.07868369
C       -0.62282036      -1.22755358      -0.42908261      -0.60559828       0.09613408      -0.12578769
N        2.70325567       2.79733469       3.23495962       1.05040561       0.32084725      -0.96595107
N       -0.05505649      -0.04255352      -0.87847803       0.33092176       1.24078692      -0.10758157
C        2.45125344       0.80645164       1.80274357      -0.09404195       0.43309854      -0.66574441
C        0.78117739       2.78295829       1.62149872      -0.21969951      -0.70792953       0.01019434
C        2.02089682       0.22703074       0.43872776       0.37012188       0.44636834      -0.38356732
C       -0.03830079       1.62983694       1.00574958      -0.24014693       0.89743309      -1.02162345
C        2.23087885       2.34935381       1.88344111      -0.15192581      -0.88622370       1.31101746
C        0.74507554       0.91206457      -0.10996352       0.50127451      -0.21233154       1.06867008
C        0.67111131       1.43033811      -3.82950303      -0.91640933       1.55042946      -0.57073255
C       -0.54497430       1.61338450      -2.87537525       0.23370409      -0.64633884      -0.46093620
H       -2.29703209       0.96052148      -3.43905089       0.35410586       0.39058650      -0.17449899
H        2.67864992       2.77817585       6.39294292       0.63235857       0.15493382      -0.90832000
H        4.43899848       4.05812265       2.81156494      -0.32222677      -0.05115959      -0.47264672
H       -0.39625946      -3.57701156       3.99462463       0.11233197       0.38408875      -0.49446292
H       -2.11571715      -4.61261985       2.31387748       0.32958140       0.41492330      -0.30266565
H       -3.20528243      -2.79473636      -2.02470253       0.33913959      -0.24897731       0.50305719
H        1.87503769       0.31849827       2.57413508      -0.04634272       0.14432900       0.33070380
H        3.50751450       0.59579482       1.98861815      -0.19315629       0.00995908      -0.00688900
H        0.27903523       3.07986381       2.53321173       0.13495942       0.00571711       0.25761077
H        0.80445199       3.66667416       0.98797082      -0.16862188      -0.08383577      -0.20400375
H        1.90548172      -0.86911008       0.46963417       0.14649012       0.59367829       0.08922449
H        2.77798798       0.46743992      -0.32348106       0.06801220      -0.47447649       0.39245496
H       -0.38181076       0.96665903       1.76800086       0.07010388      -0.66340595       0.51739245
H       -0.95408390       2.05187871       0.58335526       0.08156208      -0.03356895      -0.10434826
H        2.81462290       2.84707811       1.12058361       0.65973171       0.05041772       0.28582441
H        1.13613715       1.69223001      -0.76523540      -0.56476634      -0.19951921      -0.31094952
H        1.58664241       1.22834869      -3.32327626       0.57195583      -0.29961138       0.64038324
H        0.84771036       2.35633602      -4.41782901      -0.29236995      -0.43095087       0.45774940
H        0.47641566       0.66647457      -4.55152747      -0.18499194      -0.64499743      -0.23342789
H       -0.31611870       2.50300064      -2.25027058      -0.63372758      -0.53720729      -0.23389443
45
Properties=species:S:1:pos:R:3:REF_forces:R:3 smiles="[H:32][c:16]1[c:17]([c:21]([c:18]([c:19]2[c:20]1[C:11](=[N:6][S:7]2)[C:8](=[O:1])[N:25]3[C:27]([C:9](=[O:2])[N:24]([C:28]([C:29]3([H:44])[H:45])([H:42])[H:43])[C:26]([H:37])([H:38])[H:39])([H:40])[H:41])[H:34])[N:23]([H:36])[C:15]4=[C:14]5[C:10](=[N:5][C:12](=[C:13]([N:22]5[H:35])[H:31])[H:30])[N:3]=[N:4]4)[H:33]" total_charge=0 REF_energy=-45798.754323469846 config_type=PubChem pbc="F F F"
O       -1.82597229      -0.20700714       0.53451740       2.17998430      -0.34788834       1.54933362
O       -3.81589267      -4.11588762       2.69894221       0.76179349       1.06953579       0.64428309
N        3.85073306       5.68997433      -4.12630222       1.45818291       0.52400872      -2.75488087
N        3.37780144       5.98683597      -2.98573682      -1.07513553      -1.21236851       1.68490679
N        4.22394492       3.55404879      -5.31665943      -0.29390189       0.34442800       0.65880030
N        1.53280380      -0.53287492       1.70060303      -1.03986673       0.36764753      -0.14859981
S        2.99375441       0.32020912       1.38311853      -2.66941885      -0.13704464      -0.02800325
C       -0.96820495      -0.53816554       1.39235827      -2.68627947      -0.50540113      -0.31393009
C       -3.01622865      -3.27780578       3.11277963       0.37616994      -1.00589836       0.42159682
C        3.83735039       4.33870580      -4.30591915       0.37660723      -2.39320466      -1.07311603
C        0.42781018       0.09887951       1.30707898       1.76613566      -0.73257108       0.39657692
C        4.04940345       2.18368580      -5.17573593      -0.06324377       1.23312964      -0.25397786
C        3.46415140       1.62349131      -4.06536338      -0.43683853      -0.48310418       1.29622280
C        3.26879170       3.75100019      -3.12207506      -0.88731577      -0.39406887       1.39541071
C        2.97516276       4.82121803      -2.34007404      -0.27829380       0.14714158       1.03989757
C       -0.13338289       2.37092258       0.09566530      -0.54520662       0.00472177       0.16187689
C        0.38067057       3.52020147      -0.46835951       0.11746694      -0.11523805      -0.22431922
C        2.61700894       2.75186421       0.09889945       0.52538661       1.16399453      -0.50549966
C        2.06415786       1.62738767       0.67226021       1.28387266      -0.23889668      -0.14321178
C        0.69817510       1.39643826       0.66593727      -0.62485231      -0.49770263       0.23812569
C        1.77215209       3.69974257      -0.51141605       0.74691856      -0.52766826       0.89572775
N        3.06297090       2.39320984      -2.98799059       0.43098796      -0.50712836      -1.53909566
N        2.38534584       4.82843782      -1.06223652       0.08334651       1.92130537      -0.14669839
N       -2.30265234      -3.44972560       4.29848720       0.47942766       1.78190487      -0.37115313
N       -1.37933323      -1.44867799       2.39179113       1.63111914       0.49560164      -0.03295463
C       -2.60639713      -4.53264520       5.18868734      -1.82247523      -1.55540539      -0.03712017
C       -2.74863813      -1.99014375       2.30543401       0.03190332      -0.10118611      -0.57765960
C       -1.36707554      -2.38102815       4.72406580      -0.81568653       0.57958868      -1.03952427
C       -0.51536916      -1.94096277       3.52986099      -0.28966866       1.29895587      -0.54449597
H        4.33477428       1.53993978      -6.03148219      -0.15107832       0.67494591       0.79562692
H        3.31862475       0.52883770      -3.98213527       0.04646075       0.98173478      -0.00946046
H       -1.20079026       2.22693862       0.09231916      -0.05938294      -0.18359514       0.03490636
H       -0.28101228       4.26011517      -0.92874501       0.32815018      -0.32262964       0.22877288
H        3.71231844       2.94189980       0.14690428      -1.05570086      -0.11078254      -0.17304754
H        2.57274010       1.99438979      -2.16574452       0.66800359       0.45629665      -0.99304025
H        2.06688823       5.75360586      -0.74790702       0.06481687      -0.89641763      -0.44147120
H       -2.36708019      -5.47285602       4.63353826      -0.41450166       0.48231740       0.76486301
H       -2.07923768      -4.54011914       6.15775062       0.08529710       0.46528307      -0.76932343
H       -3.72856758      -4.52982709       5.44032575       1.59135848      -0.17720779      -0.44594764
H       -3.44594452      -1.21913717       2.65357067      -0.05072446      -0.19034526      -0.09250310
H       -3.01412317      -2.22569225       1.25018897       0.28517153       0.24830782       0.87635330
H       -0.71590278      -2.68176339       5.53727104      -0.03651152      -0.49252705      -0.12503687
H       -1.91166041      -1.49158905       5.10853864       0.11598364      -0.46608763      -0.23630933
H        0.10782167      -1.09382961       3.85469558      -0.14129560      -0.39661387      -0.19453008
H        0.14108338      -2.71926782       3.16126802      -0.00431959      -0.25392275       0.13005729
26
Properties=species:S:1:pos:R:3:REF_forces:R:3 smiles="[H:6][C:3]([H:7])([H:8])[O:1][C:5]([H:12])([H:13])[O:2][C:4]([H:9])([H:10])[H:11].[H:19][C:16]([H:20])([H:21])[O:14][C:18]([H:25])([H:26])[O:15][C:17]([H:22])([H:23])[H:24]" total_charge=0 REF_energy=-14678.510489834005 config_type="DES370K Dimers" pbc="F F F"
O       13.03697967     -11.45197009      -8.69005966       0.92541557       0.62288874      -0.18828615
O       12.19836044     -12.85595035     -10.16594982      -0.65528562      -1.24253148      -1.49315516
C       12.11289024     -11.64996051      -7.65236950      -0.04661262       1.30058381       1.17181520
C       12.14643001     -12.13059997     -11.36812019      -0.05001526       0.39138266      -0.73846404
C       13.29823016     -12.60257911      -9.40781020       0.01959826      -1.01064692       1.62933719
H       11.12002944     -12.07702064      -7.87249994       0.59116186       0.07046347      -0.55601394
H       11.98145961     -10.60549926      -7.32307004      -0.36645579      -0.62594131       0.36477910
H       12.56791972     -12.22417926      -6.82785988      -0.12469706       0.06332420      -0.25865319
H       13.16452979     -12.02195072     -11.77832984      -0.35106083       0.02878596      -0.00784646
H       11.71401023     -11.12545966     -11.22913932       0.18450564      -0.33628371       0.02589486
H       11.52974986     -12.68097972     -12.09846019       0.25663510       0.19171227       0.43291669
H       14.26360034     -12.57843017      -9.94903945      -0.58704251       0.55047930       0.02443633
H       13.34556007     -13.42813968      -8.67183971       0.20433539      -0.00083219      -0.40320811
O       13.36913013      -6.05342960      -3.37164020       1.12448146      -0.52051740      -0.98397173
O       13.91450976      -4.17976999      -1.96311998       0.53389164      -0.40759613       0.03584710
C       14.68121051      -6.72312975      -3.51894998      -0.34045130       1.16047925       0.52391491
C       13.25077056      -3.05671978      -2.51976013      -0.52203258      -0.00309703      -0.54567900
C       13.18686007      -5.37069034      -2.16755009      -0.68011038      -0.43234790       0.67999720
H       14.88098048      -7.41910982      -2.68689990      -0.29437614       0.27229420      -0.19384415
H       15.44391059      -5.92650985      -3.50211000      -0.14995952      -0.47261366      -0.02221667
H       14.77077960      -7.27592993      -4.46922016      -0.62822053       0.46214011       0.43284491
H       12.23898029      -3.00148010      -2.08405995       0.24303889       0.18115710      -0.19344397
H       13.15722942      -3.19350981      -3.61023998      -0.03178313       0.21109893       0.33507426
H       13.76894950      -2.10207009      -2.32809997       0.07713735      -0.77119615       0.14628632
H       12.12236976      -5.07489013      -2.09816003       0.29719861      -0.53120813      -0.35072563
H       13.38000106      -6.12072992      -1.37660992       0.36890056       0.84834584       0.13582471
49
Properties=species:S:1:pos:R:3:REF_forces:R:3 smiles="[H:27][c:5]1[c:9]([c:15]([c:10]([c:14]([c:8]1[H:30])[O:3][c:13]2[c:6]([c:11]([c:16]([c:12]([c:7]2[H:29])[H:34])[N:18]3[C@:25]([C:24]([C:22]([C:21]3([H:41])[H:42])([H:43])[H:44])([H:47])[H:48])([H:49])[C:23]([H:45])([H:46])[C:4](=[O:1])[O:2][H:26])[H:33])[H:28])[H:32])[N:17]([C:19]([H:35])([H:36])[H:37])[C:20]([H:38])([H:39])[H:40])[H:31]" total_charge=0 REF_energy=-30270.094477496106 config_type=PubChem pbc="F F F"
O        7.47150613       0.65951777       1.94703342      -1.19445224       1.25810455      -0.45936865
O        6.09196188       2.47213830       1.74531188      -0.10705157       0.13864920       0.26919303
O       -0.99789021       1.77559140       1.70741536      -1.65520378       0.12567315       0.40597949
C        6.53089477       1.23799779       1.42436316       0.68886969      -1.16128806      -0.33880055
C       -2.89497612       3.38620068      -0.94108269       1.37593765       0.19534972      -1.41466925
C        0.12910949       0.20146953       0.20491471       0.02368405       1.20085547       1.04257215
C        1.32536759       1.50975897       1.82512226      -3.70815350       5.36183023       4.25060183
C       -1.80327127       2.94862582      -0.17090366      -3.35026030       0.25282667      -1.08007412
C       -4.12829063       2.74372389      -0.84872434       0.57887100       3.51987031      -3.13345853
C       -3.30137918       1.49620153       0.95470252      -0.13668746      -1.65874754       1.21828503
C        1.38445791      -0.35686538      -0.13254110      -0.82673336      -0.17925526       0.86759952
C        2.44653108       0.95195299       1.56952538       3.87422957      -3.89441554      -2.62813488
C        0.11464842       1.14750900       1.29316726       0.17834032      -1.80273777      -3.12402801
C       -2.03430650       2.01103260       0.78908756       0.26955844      -0.13370211       1.39712096
C       -4.32008407       1.83524992       0.07853016      -1.20628411      -2.45007180       1.70193365
C        2.51823976      -0.08748785       0.64810821      -0.13157648      -0.74536963      -0.79520871
N       -5.58547971       1.20867344       0.15904262       0.20978725       0.81954870       0.30963300
N        3.69622900      -0.82268713       0.52952846      -1.55671040      -1.87003669      -2.14665755
C       -6.04762599       0.21714579      -0.79229531       0.55770991      -0.41816117       0.12646615
C       -6.41642282       1.53906956       1.29156794      -1.90048487       3.75273272      -2.98239119
C        3.67027523      -2.19075224      -0.02262572       2.41844471       0.06456342       2.15159650
C        5.18427803      -2.68125985       0.07550060      -1.79284431      -1.62486017      -1.38543480
C        5.62578966       0.51705309       0.35745152       1.47569376       2.01863855       2.48106999
C        5.66533996      -1.88173292       1.22260024       2.96253314       0.28142355       1.55907970
C        4.93153860      -0.54564688       1.16197719      -1.03333584      -0.89597243       1.57229349
H        6.52074529       2.86897137       2.52968814       0.11704670      -0.70004215      -0.58308622
H       -2.71349905       4.14979841      -1.75316832      -0.29512685      -0.90255315       1.15512031
H       -0.83575270       0.00806566      -0.34108434       1.39499808       0.00485199       0.56526241
H        1.37678661       2.38306095       2.60215857      -0.60373893      -1.64213584      -1.47932283
H       -0.87233112       3.32507875      -0.30291710       2.59139266       1.20480510      -0.31075036
H       -4.94000003       3.04051616      -1.53148792       0.45251159      -0.22331815       0.49338569
H       -3.57578418       0.73021423       1.71207371       0.67725243       0.72770357      -0.47631970
H        1.44216897      -1.10839472      -0.88769315      -0.05627678      -0.25656631      -0.42554995
H        3.40424277       1.08895268       1.92533448       1.26423728       1.48491089       1.64036608
H       -5.17336128      -0.23630551      -1.33097408      -0.76280644       0.34727244       0.65696914
H       -6.78822562       0.50037326      -1.60236261       0.55696988       0.15340900       1.09315734
H       -6.46670530      -0.50930951      -0.08587942      -0.35027327      -0.58700578      -1.02384956
H       -7.49032256       1.57257988       0.93775406       0.91330402       0.09040776       0.28976789
H       -6.24881932       2.57119514       1.75081446       0.20746440      -1.27539152      -0.97982688
H       -6.43017004       0.89702295       2.04973724       0.39412893      -3.05890206       3.22186702
H        3.06454470      -2.82145021       0.60529388      -0.47557755      -0.33209867       0.16938630
H        3.41909911      -2.31328270      -1.00779758      -1.19104887       0.24773159      -2.39632910
H        5.15987017      -3.80465600       0.22150635       0.21520176       1.32047378       0.14777382
H        5.70733120      -2.56778357      -0.90711961      -0.34123789       0.44530578       0.93299094
H        4.88410809       1.19615587      -0.04612092       0.24913177       0.05177243      -0.25269157
H        6.30908491       0.08964961      -0.35101793      -0.05853429      -0.19112470      -0.57072961
H        5.46033814      -2.40030525       2.19689491      -0.00024534       0.48984947      -0.94598247
H        6.80246879      -1.66870973       1.23732605      -1.82055538      -0.46160473      -0.06022566
H        4.65742304      -0.35423420       2.23194709       0.91007245       0.90654127      -0.72258057
15
Properties=species:S:1:pos:R:3:REF_forces:R:3 smiles="[H:9][c:3]1[c:5]([c:8]([c:6]([c:4]([c:7]1[F:1])[H:10])[H:12])[F:2])[H:11].[H:14][O:13][H:15]" total_charge=0 REF_energy=-13808.823607925877 config_type="DES370K Dimers" pbc="F F F"
F       -1.27560997      -2.49845004       4.86157989       0.43469539       0.32767303      -1.04466670
F        0.00000000       0.00000000       0.00000000       0.30406079      -0.13363295      -0.60650801
C       -1.28820002      -0.56108004       3.42501998       0.36916681      -1.28827170      -0.32700549
C       -0.27478000      -2.60010004       2.64171004      -0.82053845      -0.06950871       1.33965448
C       -1.00061000       0.03383000       2.16609001      -0.47557651       0.21772901       0.51462582
C        0.06675000      -1.93358004       1.46796000       0.67631070      -0.38093942      -2.16261770
C       -0.90555000      -1.90613007       3.68761992      -0.19952636       1.32885764      -1.40149876
C       -0.25536001      -0.61436999       1.13371003      -1.77293507      -0.49839801       4.41716222
H       -1.90738010      -0.07093000       4.18789005       0.42553405       0.04050241      -0.58518816
H       -0.20655000      -3.69154978       2.74017000       0.48041681       0.62359753      -0.18228730
H       -1.50717008       1.00141001       2.05302000       0.71256563      -0.28548062      -0.40733871
H        0.54038000      -2.51572990       0.66646999      -0.12331019       0.11046418       0.44704899
O        4.94011021      -4.68013000       0.55093002      -0.43818897       0.35852506       1.27902207
H        4.58265018      -5.26916980       1.25341999       0.44139438       0.75935812      -0.82620185
H        4.93658018      -3.78259992       0.95429003      -0.00840269      -1.11395549      -0.44879449
31
Properties=species:S:1:pos:R:3:REF_forces:R:3 smiles="[H:22][C:8]([H:23])([C:12]([H:30])([C:10]([H:26])([H:27])[S:3][C:7]([H:20])([H:21])[S:4][C:11]([H:28])([H:29])[C:13]([H:31])([C:9]([H:24])([H:25])[O:2][H:15])[N:6]([H:18])[H:19])[N:5]([H:16])[H:17])[O:1][H:14]" total_charge=0 REF_energy=-36310.03073443872 config_type=PubChem pbc="F F F"
O       -1.07670078       4.58203127       4.31781389       0.29375949      -0.56331163       0.36597475
O        4.07645705      -1.15702448      -3.77988861       0.45703409      -0.44378237      -0.02916132
S       -0.95124195       0.98473187       1.32569327       0.83365268      -0.27330430       0.06352001
S        0.32317862      -0.22083400      -1.11974285      -0.10123685       0.36466324       0.19143782
N       -2.61773250       3.10402276       2.81446125       0.42806304      -0.41433300      -0.29977788
N        1.12246158      -2.82088754      -2.31964586       0.05897147      -0.44931936      -1.42772688
C        0.66131850       0.53758725       0.50282556       0.24974373       0.52932303       0.44653491
C       -1.28229365       3.25591066       4.84877827      -0.24326841       0.52055090      -1.13676434
C        3.36087706      -2.25233648      -3.15559242       0.51525892       0.33342377      -0.78606166
C       -0.40519349       1.92588558       2.81913330       0.43787448       1.21589451      -0.32514940
C        2.01746478      -0.67954061      -1.62087700       1.02868612       0.94190431      -0.09458821
C       -1.64663289       2.34318282       3.63720800      -0.56811163      -0.49365761       0.52937756
C        1.98365428      -1.72731373      -2.76231882      -0.30157026      -0.39202553       1.27847440
H       -1.53486178       4.58031513       3.45566871       0.12776787       0.01381459       0.39407506
H        4.96968414      -1.43604419      -4.06978891      -1.07228631       0.07582214       0.42388214
H       -2.88644574       2.54096129       2.00355985      -0.02827309       0.48055867       0.40926550
H       -3.43908522       3.32219245       3.37110092       0.08215722      -0.21322043      -0.21272991
H        0.19702347      -2.45173214      -2.15461991       0.15007829      -0.45789475       0.34750941
H        1.47612699      -3.35402820      -1.54121993      -0.08076780       0.30011069       0.17842807
H        1.22800877       1.47970410       0.37273259      -0.25536265      -0.58304122       0.06402977
H        1.25431832      -0.17400847       1.11297448      -0.49915739       0.45917720      -0.24244083
H       -2.14593146       3.30444910       5.55197098       0.68587088      -0.30816689      -0.26202000
H       -0.35794286       2.88615658       5.33971788      -0.66503139       0.37589858      -0.14946011
H        3.24117948      -3.08382389      -3.88628623      -0.03919300       0.46384233       0.61773213
H        3.93636372      -2.59185980      -2.29020450      -0.20888355      -0.15863338       0.06147831
H        0.29712334       1.33316710       3.43269636      -0.53473140       0.18733153      -0.29478140
H        0.11385410       2.88884856       2.53067901      -0.45217572      -1.15826228       0.06470952
H        2.53009751      -1.08673272      -0.72002420      -0.25540001       0.10283410      -0.69060646
H        2.55726649       0.23508095      -1.95604608      -0.31654283      -0.62551276       0.35096575
H       -2.15373394       1.44292649       4.01298811       0.39738656      -0.00599046       0.09325337
H        1.55583145      -1.30649445      -3.66925475      -0.11942825       0.17620537       0.07207910
34
Properties=species:S:1:pos:R:3:REF_forces:R:3 smiles="[H:29][c:14]1[c:15]([c:18]([c:13]([n:4][c:12]1[H:27])[H:28])[C:6]2=[N:2][N:23]([C:11](=[c:22]3[c:20]([c:17]([c:16]([c:19]([c:21]3=[N:3]2)[H:32])[H:31])[Cl:1])[H:33])[C:10]4=[C:9]([C:8](=[C:7]([S:5]4)[H:24])[H:25])[H:26])[H:34])[H:30]" total_charge=0 REF_energy=-47140.65591297999 config_type=PubChem pbc="F F F"
Cl       2.71960236       3.45357134       4.63426639      -0.54128768      -0.44995352      -1.51597979
N       -0.24999318      -0.75268290      -0.34109119      -0.96004596       2.02238203      -1.39310963
N       -0.68185458       1.58124699       0.26020643      -2.23557862      -1.47784601      -2.42815411
N       -2.26108739      -0.41762243      -3.87556932       0.26427662      -1.14557853       1.89991210
S        4.23525907      -0.83502433       1.23573257      -1.19296628      -0.17433437       1.28138433
C       -0.73452363       0.45580996      -0.55767927       2.12786478      -1.21908103       2.70558408
C        4.75152638      -1.92236564       2.51016881      -1.61666315       0.92262733      -0.21209341
C        3.69914796      -2.43840096       3.17662217      -1.53441417      -1.79393983       0.59996908
C        2.41638400      -2.14360425       2.60581162       1.38650629       1.93127974      -0.32847130
C        2.53188159      -1.10663305       1.69612565       1.23670366      -1.46212328       0.88477962
C        1.36041512      -0.33864710       1.41344252      -1.47584987       1.87727170      -1.39610542
C       -2.99844954       0.67998856      -4.00350950      -1.07440967       0.12179674      -0.92593034
C       -1.52184103      -0.53221796      -2.74556015      -0.72824704       2.89983917       0.09632115
C       -2.81860087       1.84588768      -3.29527042       2.14800110      -1.86807345       1.26617643
C       -1.91786263       1.84312370      -2.20443509      -0.97188771      -0.49366112      -1.27494504
C        0.95443269       3.69859244       2.50865283      -0.98573910       0.64620566      -0.53159205
C        1.86746182       2.89390971       3.12522127       1.66682250      -2.34593978       1.30702148
C       -1.37324212       0.59716805      -1.82791254      -1.21631256       0.13128527      -2.52763503
C        0.09720360       3.13314773       1.61241259      -1.31025299       5.90841024       1.11800004
C        1.99964036       1.57592144       2.68168833       3.06604193       1.61000641       2.96043394
C        0.14493590       1.86073925       1.21575596      -0.01955681      -3.42137850      -1.82216356
C        1.18565680       1.03950181       1.70955267       1.29103009      -1.62129056      -0.31388192
N        0.28212527      -0.99016295       0.91574060       0.15785819      -3.12331006       1.98022964
H        5.72275974      -1.91447422       2.89022710       1.50132326      -0.21921799      -0.11634952
H        3.65736701      -3.07436846       4.08196547       0.84706204       0.45436655      -0.73260295
H        1.45844015      -2.41510651       2.99880006      -0.13300682      -0.25798299       0.32186317
H       -3.87209318       0.64542972      -4.70511672       1.27428262      -0.08517517       0.18299802
H       -1.02822397      -1.44958327      -2.47608206       0.02261152      -0.15347092      -0.39668957
H       -3.25183103       2.69774582      -3.67065761      -1.14819692       1.91286992      -0.31885122
H       -1.76518629       2.80996778      -1.73180650       0.29079009      -0.68505701       0.45980486
H        0.94004735       4.74718764       2.70966604      -0.27135584       0.41095584       0.23466149
H       -0.70339642       3.79824116       1.16119447       1.23016464      -1.08163810       0.47566776
H        2.81477263       0.99900519       3.20743849      -1.21871567       0.38292068      -0.84115183
H        0.33115055      -2.03326676       1.07602378       0.11893198       1.84479954      -0.70215545
48
Properties=species:S:1:pos:R:3:REF_forces:R:3 smiles="[H:35][c:17]1[c:15]([c:19]([c:16]([c:18]([c:20]1[C:26]([H:43])([C:10]2=[N:6][N:21]3[C:13](=[C:11]2[H:31])[N:5]=[C:9]([C:12](=[C:14]3[N:22]4[C@:29]([C:28]([C:27]4([H:44])[H:45])([H:46])[H:47])([H:48])[C:8](=[O:1])[O:7][H:30])[H:32])[C:23]([H:37])([H:38])[H:39])[C:25]([H:40])([H:41])[H:42])[H:36])[H:34])[C:24]([F:2])([F:3])[F:4])[H:33]" total_charge=0 REF_energy=-39279.437281406834 config_type=PubChem pbc="F F F"
O        3.53091933      -2.79658196      -2.06133363       0.95495248      -0.00136867       0.45754681
F       -5.64151618      -0.25726161      -1.85393212       0.20769846       0.93478678      -0.67706494
F       -3.83954379       0.17065450      -3.02722165      -0.38115436       0.03838359       0.10210543
F       -4.88123939       1.84390261      -2.11624119      -0.72814249      -0.34957476      -0.45727591
N        3.06433060       2.82229426       2.66527559       1.47400532      -0.04429499      -1.02466559
N        0.90414955       0.30827062       1.43905427      -0.37855747      -0.14066886      -0.58866729
O        5.22070887      -1.40948877      -1.46296964      -1.71123814       0.31326563       0.85707693
C        3.90866711      -1.82645748      -1.44424734      -0.44874447      -0.18128421      -1.33967023
C        4.04166510       2.82803633       1.78361537      -1.02338776      -0.33798836      -1.18295450
C        0.22018757       0.70598472       2.52151134       0.85972874       1.45432883      -0.00912837
C        0.96489429       1.74236490       3.19640353      -2.22733593      -1.37788906       0.19636019
C        4.01238968       2.02586796       0.54042984      -0.41249043      -0.38541346       1.17066392
C        2.06930818       1.93760743       2.43426515       0.82378913       0.83473538       0.81873578
C        2.96655419       1.16277643       0.31074300       0.99613394       1.30399688       1.39231200
C       -3.97108648       1.31640824       0.44528694       0.40608556      -1.55771148      -0.88652123
C       -2.79004333      -0.57718084      -0.54362986       0.94916050      -0.78252587      -0.30169240
C       -3.18810198       1.17789515       1.60259702      -0.76545248       0.74956228      -0.29679485
C       -1.95367143      -0.64422033       0.58123101      -0.35943688       0.50858840       0.37350696
C       -3.75230119       0.42791174      -0.65042064       0.33076908       0.35359652       0.64144254
C       -2.14920566       0.25528314       1.65534868       0.57116987      -0.19359124      -0.32624332
N        2.03256848       1.08282842       1.37683632      -0.53712393      -0.81935293      -1.08942776
N        2.86078002       0.46017985      -0.88315127       1.20191777       0.46825405       1.45458660
C        5.10095598       3.86232712       1.89789643       0.64666754       0.12769795      -0.52400719
C       -4.54591224       0.55609353      -1.95043228       0.75593136      -0.51838932       1.77076628
C       -1.17665479      -1.18167219       3.45668080       1.06938755      -0.08830309      -0.39241942
C       -1.20909379       0.23761033       2.86469581       0.42399315      -0.49934005      -0.58786325
C        1.65392187       0.62635894      -1.65959785      -1.66460184      -0.04026918      -0.84613724
C        1.50977185      -0.89850292      -1.65260027      -0.98183642      -0.53129437      -1.22532440
C        2.77637174      -1.00811777      -0.79909132       0.23507889       0.29788736       0.01777055
H        5.70414545      -2.03776810      -2.00199649       0.00978812      -0.32159433      -0.17455215
H        0.68177954       2.24313833       4.11255004       0.21144043      -0.01281697      -0.29302696
H        4.86016800       2.02953722      -0.15489683      -0.68905148       0.22364694       0.26613268
H       -4.78861663       2.01561501       0.35654569       0.17798634       0.20179106       0.20894281
H       -2.60414694      -1.33350382      -1.35950801      -0.42203434       1.16096599       0.87005236
H       -3.41431234       1.85219397       2.45659687       0.40976555      -0.61115979      -0.67758943
H       -1.12455664      -1.36580083       0.65089532      -0.67709655       0.44558985      -0.21771764
H        4.66425135       4.84285309       1.69977381       0.05506286      -0.06048497       0.06579998
H        5.53555204       3.87242224       2.87789061       0.10104554       0.08096032       0.55629095
H        5.91432573       3.69862892       1.17388656      -0.38536412       0.04270198       0.24752090
H       -2.17001865      -1.49792693       3.73200610      -0.16490033      -0.12551936       0.30458286
H       -0.46865491      -1.17920730       4.28956296      -0.40772261      -0.17995366       0.15543058
H       -0.76451371      -1.91403053       2.72827985      -0.36027123       0.58372122       0.37588832
H       -1.61654208       0.94177335       3.60492040       0.30283920      -0.26558694      -0.20031004
H        1.75805773       1.07727995      -2.65889523       0.51925086      -0.11308097       0.39737295
H        0.80711394       1.16849747      -1.19370685       0.64067412      -0.39612252       0.19156032
H        1.53362241      -1.36093710      -2.64574168       0.10512411      -0.03177092       0.46621016
H        0.61576711      -1.20154546      -1.12902592      -0.04302458      -0.26101144       0.08508707
H        2.53731062      -1.40188585       0.19436659       0.33000933       0.10167199      -0.11193383
39
Properties=species:S:1:pos:R:3:REF_forces:R:3 smiles="[H:26][c:13]1[c:17]2[c:18]([c:14]([c:16]3[c:15]1[O:5][C:22]([O:6]3)([H:34])[H:35])[H:27])[C:24]([N:19]4[C:11](=[C:9]([C:10](=[C:12]4[C:23]2([H:36])[H:37])[C:8](=[O:2])[O:4][C:21]([H:31])([H:32])[H:33])[C:7](=[O:1])[O:3][C:20]([H:28])([H:29])[H:30])[H:25])([H:38])[H:39]" total_charge=0 REF_energy=-31664.55172501892 config_type=PubChem pbc="F F F"
O       -0.92647908      -3.10148284       3.01311423      -0.33443742      -1.92681597       0.95989338
O       -1.62679861      -0.63544021      -1.52644775       1.10861119      -1.55784966       0.65852311
O       -2.55681536      -2.83183715       1.38547852       2.08893318       0.79786346       1.08780263
O       -0.71336505      -2.69780586      -0.88525293      -0.08354786       1.41841846       0.16993224
O        4.08573868       5.07115509      -0.86201833       0.12253892      -0.13200259      -3.18060322
O        3.94656064       5.57271435       1.35127547       0.69712667       0.19866237      -0.95418614
C       -1.40793894      -2.45797989       2.14028349      -1.06742417      -0.46131972      -0.18059579
C       -1.02506373      -1.31705890      -0.70644066      -1.05399340      -0.62000368      -1.69521216
C       -0.75278375      -1.21301994       1.84916927      -2.30069283      -1.56123351      -2.51672348
C       -0.60309491      -0.71249447       0.57279400       0.37704847      -0.66549448      -2.93139695
C       -0.23037020      -0.35085407       2.67459657       1.04378826       3.00479904       1.00280243
C        0.10216316       0.45079162       0.61995039      -0.02741290       0.49679534      -0.57144301
C        2.31000235       3.25413324      -0.79847107      -0.31223858      -1.06267326      -0.80832265
C        2.33377673       3.81743528       1.87571695       1.24277723      -0.56380841      -3.24036410
C        3.13350823       4.28018071      -0.31515113      -0.43468971      -1.77110270      -1.68498953
C        3.18331458       4.53703072       0.97127109      -3.86658784      -1.96119741       5.80908691
C        1.55564060       2.40538575       0.08581039       0.96597723       1.22190577       0.10858430
C        1.60085859       2.67689445       1.48902484       0.49536987       2.00689278      -2.51380968
N        0.19429716       0.75653418       1.95116403       1.27744129      -0.66635013       0.32717833
C       -2.61426589      -4.23741052       1.19908937      -1.28486308      -0.13536785      -1.23547685
C       -1.10924432      -3.37615750      -2.12011669      -1.30589919       0.45865836       0.66327494
C        4.55872967       5.92070057       0.09197088       1.86209210       2.40703635       1.32789467
C        0.79713892       1.21262958      -0.49535558      -0.57332288       1.05290015       0.65318939
C        0.73205607       2.00532426       2.47204043      -1.27647677      -0.09102106       0.14145308
H       -0.04270444      -0.49796090       3.67738702       0.03685480       0.32722878       1.97863292
H        2.24494996       3.00868823      -1.89100048       0.26572168       0.42400871       1.19373220
H        2.33337833       4.16835095       2.82467510      -0.09438358       0.70509668       2.99496596
H       -3.33965013      -4.45786474       0.39779929       0.25408774       0.51419876       0.24807887
H       -2.94097612      -4.81292198       2.02545287      -0.21942354      -0.10459509       1.24807702
H       -1.68424676      -4.61547992       0.87700545       1.19511877      -0.31630053      -0.29832193
H       -0.23399684      -3.62643239      -2.72642252      -0.16625176       0.63129931       0.04370887
H       -1.59361289      -4.36238334      -1.88952014       0.38929692       1.06428991       0.27141815
H       -1.87485120      -2.70658157      -2.58146904       0.90561104      -0.74247499      -0.20741780
H        4.38564589       6.99272634      -0.12118755      -0.65744805      -0.46930854      -0.09103225
H        5.66208841       5.88853027       0.18940120      -0.42517980      -0.66582404      -0.04170998
H        0.03949430       1.51865186      -1.23357461       0.26792423       0.10393690       0.31647843
H        1.52350517       0.63396333      -1.06776653      -0.21064111      -0.48796360       0.35789683
H       -0.12910537       2.65370157       2.78825047       0.77151301      -0.44555337      -0.37305322
H        1.32042673       1.82355644       3.33538534       0.33062806      -0.42188142       0.96735034
49
Properties=species:S:1:pos:R:3:REF_forces:R:3 smiles="[H:32][c:11]1[c:13]([c:19]([c:14]([c:17]([c:12]1[H:33])[O:4][H:30])[H:35])/[C:9](=[C:8]2/[C:6](=[O:1])[N:25]([C:7](=[N:2]2)[C:28]([H:44])([H:45])[H:46])[N:26]([H:40])[c:22]3[c:16]([c:10]([n:3][c:23]4[c:24]3[c:21]([c:18]([c:15]([c:20]4[H:38])[H:36])[O:5][C:27]([H:41])([H:42])[H:43])[H:39])[C:29]([H:47])([H:48])[H:49])[H:37])/[H:31])[H:34]" total_charge=0 REF_energy=-35263.65330437264 config_type=PubChem pbc="F F F"
O        2.77343299       1.50339963       1.47210338      -0.95893785       0.02566096      -1.92752766
N        1.64325084       1.09731611      -1.85485647      -0.87761130      -1.22425222       1.09925900
N       -2.72655914       0.71119756       3.68371131      -0.11539343       1.53805339      -0.58809261
O        4.12514093       2.37826087      -5.98668525       0.06211057      -0.58937389      -0.13979968
O       -0.70974753      -4.45054338       3.95827820      -0.39825882      -0.26071115       0.06477105
C        2.18586375       1.31195673       0.39376688       1.18084432      -0.06328166       4.67627383
C        0.92316075       0.28091455      -1.12770221      -0.10988335       0.08624291      -1.29902789
C        2.41627600       1.79681601      -0.92214272       1.25589701       1.73361402      -1.76711058
C        3.25002672       2.83213880      -1.18214593      -0.55189992      -1.01853963       0.05186199
C       -2.22254608       1.58724739       2.79992153      -1.52804185      -1.65262437       1.27297146
C        4.56737901       5.24156143      -3.73528621       0.11303537      -0.21890544       0.27937046
C        4.55263187       4.50506808      -4.92230127      -0.80471715      -1.09470498       0.60307453
C        4.12539007       4.66679337      -2.54548881       0.01605659      -0.12294088       0.28540565
C        3.57913114       2.63096740      -3.67313192       0.67540871       0.98957625      -0.57781843
C       -2.25862978      -2.73770282       4.81640627      -0.23652055       0.88253329       0.67876167
C       -1.19827399       1.26664158       1.93608072       1.19933246      -1.70513918      -0.56034323
C        4.07531955       3.15772249      -4.87434814       0.16514988       1.09594522       0.95765273
C       -1.22673152      -3.16290829       3.96452620       0.51374706      -0.89250063      -0.60248629
C        3.60447051       3.35660841      -2.49330328       0.69406278       1.38849615      -0.06825094
C       -2.71957610      -1.43269179       4.71098234      -1.11994049      -0.87894587       0.56605648
C       -0.67200492      -2.30348775       3.02823760       0.23717050      -0.82829910       0.02843893
C       -0.60921762      -0.00838087       2.01078393      -0.02391202       1.44784407      -0.06154057
C       -2.23455093      -0.53684185       3.74292948       1.10429799      -0.20923061      -0.23781627
C       -1.15407357      -0.99029527       2.92777397       0.23794033       1.09049847      -0.64971976
N        1.13803037       0.42585998       0.26046144      -1.65362615      -1.35192815       0.43544120
N        0.53918544      -0.36098132       1.28863182       0.87978357      -0.48591004      -0.73747059
C       -1.41621873      -5.50212524       4.64702751      -0.15533921       0.75812142      -0.28729574
C       -0.07193039      -0.67571542      -1.72959969      -0.17232793       0.87237111       0.68133962
C       -2.83375928       2.93921783       2.72448589      -0.93106843       0.22664590       0.86931293
H        4.03117229       1.43939670      -5.73207090      -0.03485793       0.90484828      -0.18873729
H        3.71247174       3.27288844      -0.31077055       0.03903375       0.14190790      -0.02394729
H        5.00149729       6.24979689      -3.67593381      -0.36123919      -0.53730818      -0.34014517
H        4.85295965       4.95544340      -5.84880826       0.22652405      -0.11521214      -0.23600376
H        4.20997908       5.21868326      -1.60917423      -0.04726873      -0.05982827      -0.31613781
H        3.24588039       1.64090707      -3.63988445      -0.52623900      -1.30531590      -0.09629565
H       -2.64473412      -3.35139630       5.64350321       0.20587384       0.15649176      -0.76308842
H       -0.90801380       2.02631130       1.22701230       0.47456041      -0.19915117      -0.05974701
H       -3.57141159      -1.11559138       5.34854986       0.88062723      -0.09030171      -0.48487853
H        0.11130234      -2.70982478       2.35393717      -0.72896028       0.38435157       0.63000338
H        1.16591920      -0.99664436       1.80789580      -0.29585594       0.88796507      -0.93586672
H       -1.41726623      -5.28776643       5.69723322      -0.25102293       0.08058594       0.63390092
H       -2.43352625      -5.65730140       4.27690222       0.03061507       0.41827345       0.01152655
H       -0.91917394      -6.44960401       4.52593853       0.63384979       0.02589134      -0.38639384
H        0.26055732      -1.02954647      -2.70126436       0.03041735       0.24371258       0.05784773
H       -1.02931092      -0.11919722      -1.82722423       0.49079514      -0.56512883      -0.01659053
H       -0.20443902      -1.51199148      -1.05991540      -0.23282826      -0.21487341       0.10897826
H       -3.88277671       2.90711739       3.10598471       0.98871571       0.09351682      -0.13435111
H       -2.86657927       3.28633739       1.70594980       0.10633248       0.21260181      -0.35397007
H       -2.22969434       3.63365128       3.32270505      -0.32548658      -0.00218117      -0.14923853
31
Properties=species:S:1:pos:R:3:REF_forces:R:3 smiles="[H:20][C:7]1([C:2](=[O:1])[C:8]([C:13]2([C:11]([C:9]([C:10]([C:12]1([N:4]2[N:3]([C:5]([H:14])([H:15])[H:16])[C:6]([H:17])([H:18])[H:19])[H:30])([H:26])[H:27])([H:24])[H:25])([H:28])[H:29])[H:31])([H:22])[H:23])[H:21]" total_charge=0 REF_energy=-15699.51180679624 config_type=PubChem pbc="F F F"
O        3.75537207       1.92995610       0.06618469      -0.12259598      -0.20797957      -0.04692290
C        2.59908154       1.56611588       0.13987272       1.13768186       0.86945016      -0.42990403
N       -1.27592025       1.12919029       0.18311979      -0.04387918       0.25492527      -1.58189781
N        0.07755276       0.69193978       0.33384101      -2.60235092       0.41185210      -0.08538860
C       -1.58888194       2.58076861       0.22928222       1.87377238      -0.47098108       0.22626665
C       -2.34555624       0.24459719       0.62309254       1.23229985       0.11688284       1.04701120
C        1.93422868       1.00134858      -1.14681409      -0.61048922      -1.34339093       1.49489829
C        1.87701156       1.77839544       1.48231443      -0.09753215      -0.30292237       0.15525829
C        2.03930475      -1.32966159       1.08396735      -0.24671248       0.60487009       0.31487338
C        1.35824659      -1.36717961      -0.30474231      -0.66180871      -0.95045049       0.55062396
C        1.13769587      -0.60543571       2.11608400      -0.22247077      -1.03303291      -0.58536514
C        0.79928955       0.00103666      -0.75526020       0.07437708       0.89917056       0.45488025
C        0.72819047       0.77410554       1.62494733      -0.28568740       0.07832359       0.08642317
H       -1.38627742       2.95128157       1.24839701      -0.14661157       0.31046720      -0.21542477
H       -0.89720545       3.09571459      -0.47711859      -0.56768108      -0.23691202       0.55886948
H       -2.62251732       2.84374525      -0.02817456       0.32431224      -0.58730426      -0.04082705
H       -3.32867000       0.70777822       0.58242967       0.19933491       0.23207007      -0.08525158
H       -2.36339304      -0.63548217       0.00464465      -0.02596754      -0.50753229      -0.10828641
H       -2.12111328      -0.02531455       1.66925313      -0.53054104      -0.32049537      -0.13670498
H        2.65283372       0.50468756      -1.78785465       0.47036209       0.25584378       0.10590138
H        1.46871772       1.79311778      -1.69003580      -0.20421078       0.72725448      -0.24284029
H        2.59000256       1.68208387       2.33519938      -0.23427269       0.18274663      -0.90209522
H        1.43801059       2.80599024       1.53133120       0.45262110      -0.79015427      -0.33352114
H        2.27836969      -2.32859585       1.47792610      -0.07958627       0.25993462      -0.44661854
H        2.98723747      -0.78192482       1.00139501      -0.10354936      -0.19483943       0.05074643
H        0.50606757      -2.09941743      -0.25280033       0.67568007       0.68593620      -0.05684024
H        2.07926395      -1.78563855      -1.01808498      -0.27755754       0.30991400      -0.07788590
H        1.62415781      -0.53182373       3.07485630       0.33769022       0.03527625       0.33210543
H        0.23212241      -1.24297795       2.27673604       0.52248413       0.65966601      -0.17829234
H        0.10654851      -0.13174287      -1.59934376       0.23716488       0.07421381       0.43783756
H        0.06472307       1.18783500       2.37984767      -0.47295095      -0.02207348      -0.26086390
15
Properties=species:S:1:pos:R:3:REF_forces:R:3 smiles="[H:14][c:8]1[n:3][c:6]([c:7]2[c:9]([n+:11]1[O-:1])[N:10]([C:5](=[N:2]2)[H:13])[H:15])[S:4][H:12]" total_charge=0 REF_energy=-24100.42396247949 config_type=PubChem pbc="F F F"
O        0.74819747       0.73903736      -2.28475998       0.63025447       0.20228712      -2.41511577
N        1.38742091       0.73791147       2.18573715       0.99053916       0.47065521      -1.42722554
N       -1.73382327       0.10154983       0.20253914       2.37276361       0.19634727       0.05052475
S       -1.48753235      -0.01751015       2.92097642      -0.47219540      -0.29646289       0.18660157
C        2.53928687       0.99294304       1.56150606      -2.67358529      -1.12610069      -0.61637227
C       -0.91626237       0.23629063       1.28636606      -1.05723111      -0.23090373      -0.81217808
C        0.43058739       0.56636052       1.14781823       0.38926889      -0.14018144       1.95443935
C       -1.11875031       0.24327393      -1.01685140      -0.75239252       0.60759620       1.17784586
C        0.97379263       0.68442162      -0.09029505       1.23182095       0.06278737       2.27217007
N        2.32886495       0.91315751       0.16483733       0.30717083       0.46297877      -0.22411889
N        0.19274845       0.56371119      -1.17924438      -0.03952067      -0.28722881       0.42559738
H       -0.26153628      -0.25077520       3.45394995      -0.40362877       0.26963156      -0.30669645
H        3.51315858       1.15041103       2.07899227      -1.00665277      -0.09850669      -0.91633738
H       -1.69637368       0.23646712      -1.96126840       0.52623002      -0.16967044       0.88025955
H        3.03787925       1.04040822      -0.53264544      -0.04304925       0.07553351      -0.22910562
24
Properties=species:S:1:pos:R:3:REF_forces:R:3 smiles="[H:8][C:3]([H:9])([H:10])[C:1](=[C:2]([C:5]([H:14])([H:15])[H:16])[C:7]([H:20])([H:21])[C:6]([H:17])([H:18])[H:19])[C:4]([H:11])([H:12])[H:13].[H:23][O:22][H:24]" total_charge=0 REF_energy=-9573.191649697108 config_type="DES370K Dimers" pbc="F F F"
C        0.38655001      -0.14951000       3.43132996      -0.45508827       0.33294274       0.10057684
C       -0.21432999      -0.71388996       2.38868999       0.18245687      -0.75870443      -0.43566088
C       -0.36056998      -0.03747000       4.75218009       0.18551577       0.02524365       0.02109612
C        1.79515004       0.43462002       3.47084999      -0.34286942      -0.20981672       0.43031338
C       -1.65930998      -1.30069006       2.44622016       0.68210555       0.73236484       0.33817458
C        0.00000000       0.00000000       0.00000000       0.55090256       1.17982934      -0.51424675
C        0.49536001      -0.93647003       1.06962001      -0.88016071      -1.63046987       0.02507862
H       -1.45537996       0.01944000       4.63070965       0.59259967      -0.03386096       0.05261831
H       -0.02382000       0.84338003       5.32428980      -0.15963932      -0.39527602      -0.17849410
H       -0.11732000      -0.94562000       5.32896995      -0.21093675       0.39257358       0.08667659
H        1.72049999       1.53310001       3.40461993       0.17848865      -0.38020255       0.11621185
H        2.53309989       0.08675000       2.72853994      -0.63919417       0.04077056       0.26202349
H        2.15612984       0.16662000       4.47805976       0.28857524       0.35341254      -0.42297371
H       -2.35767007      -0.45278001       2.54596996       0.04173230      -0.47443298      -0.04027635
H       -1.77163005      -1.95451999       3.32740998      -0.02539646       0.26039711      -0.47406526
H       -1.93039000      -1.87556994       1.54475999       0.33630997       0.36110511       0.37886847
H        0.69009995      -0.07038000      -0.85757005      -0.47472987       0.20258324       0.13907013
H        0.10721000       0.99820006       0.45686001      -0.18195320      -0.06072852      -0.64749103
H       -1.03337002      -0.10834000      -0.37016999       0.43199671      -0.21529483       0.45409123
H        0.16236999      -1.95903003       0.80707002       0.64119983       0.20320814      -0.16618658
H        1.60233009      -0.93107998       1.06374002      -0.72656419       0.11542774       0.45771619
O       -2.58329987      -4.61739969       2.17574000      -1.38602123       0.17120467      -0.13437249
H       -3.04051995      -3.97011017       1.59245002       0.51307470      -0.80796875       0.75151965
H       -3.31083011      -5.08935976       2.64071989       0.85791713       0.59467623      -0.60116526
21
Properties=species:S:1:pos:R:3:REF_forces:R:3 smiles="[H:9][C:4](=[O:1])[O:2][C:6]([H:13])([H:14])[C:8]([H:17])([H:18])[C:7]([H:15])([H:16])[S:3][C:5]([H:10])([H:11])[H:12].[H:20][O:19][H:21]" total_charge=0 REF_energy=-22366.30970131508 config_type="DES370K Dimers" pbc="F F F"
O        1.05172002      -1.42078996       5.48502016      -1.43703522       0.93133331      -0.59136562
O       -0.32244000       0.36385000       4.92476988       0.61037901      -0.68963394      -0.07474381
S       -0.20015000       1.68666005       0.53378999      -0.38275096       1.04642019      -1.37337985
C       -0.04080000      -0.91073000       5.33347034       0.94265840       0.47346550       0.62842399
C        0.00000000       0.00000000       0.00000000       0.42396552      -0.80924539       0.65993612
C        0.78178000       1.25039995       4.49813985      -0.65980059       0.80217429       1.20198015
C       -0.36860001       1.62967992       2.28303003      -0.09412417      -0.71603490       1.45400796
C        0.92233002       1.19070995       3.00076985       0.69075737      -0.71730120      -0.45535259
H       -0.99070000      -1.39595997       5.63332033       0.32873795       0.16480571      -0.35591526
H       -0.75064003      -0.64774996       0.48328000       0.30465330       0.21090318      -0.34678744
H        1.00460005      -0.33473998       0.30875998      -0.48811479      -0.15926300      -0.30744315
H       -0.08832000      -0.11442000      -1.09349000      -0.09440811       0.62296042       1.04683677
H        1.63539004       1.03415000       5.16897010      -0.18738533      -0.00616056      -0.96217538
H        0.42906001       2.27553987       4.72202968      -0.00008600      -0.62708793       0.37114180
H       -0.60056996       2.67408991       2.56737995       0.08363577      -0.52506223      -0.10300462
H       -1.20320999       0.99225998       2.63313007       0.27349087       0.40499801      -0.41491066
H        1.21811008       0.14050001       2.81363010      -0.31015176       0.51039476      -0.58249198
H        1.70780003       1.84293997       2.57290005      -0.07832645      -0.37766477       0.74138980
O        0.04242000      -1.95084000      -2.10318994      -0.45495686       0.67151354      -1.13957840
H       -0.87415999      -1.83842003      -2.44303989       1.11370766      -0.14556817       0.33349257
H        0.54141998      -1.19076002      -2.47940993      -0.58354643      -1.06685000       0.27444585
48
Properties=species:S:1:pos:R:3:REF_forces:R:3 smiles="[H:30][c:7]1[c:8]([c:10]([c:16]2[c:15]([c:9]1[H:32])[C:21]([N:19]([C:22]2([H:38])[H:39])[C:5](=[O:1])[c:14]3[c:11]([c:18]([c:17]4[c:13]([c:12]3[O:3][H:28])[O:4][C:26]5([C:25]4([C:6](=[N:2][N:20]5[H:35])[H:29])[H:46])[H:47])[C:27]([H:48])([C:23]([H:40])([H:41])[H:42])[C:24]([H:43])([H:44])[H:45])[H:34])([H:36])[H:37])[H:33])[H:31]" total_charge=0 REF_energy=-32751.589070882896 config_type=PubChem pbc="F F F"
O        3.20677426      -0.90235422      -0.13427619       0.17169427      -0.65632328       0.15432890
N       -2.58573959      -1.48259637       4.97405721       2.18348211       1.93710990      -0.67905864
O       -0.57857892      -1.86681555      -0.34645591      -0.17267482      -0.82590081      -1.23231308
O       -2.40875504      -1.09929261       1.64991512      -0.01652757      -0.35595430      -0.93450713
C        2.06172277      -0.61874971      -0.44154821       2.04233672       1.10561407      -2.05111428
C       -1.79960201      -0.43390498       4.87606575      -1.60214876      -2.13869961       1.11011672
C        2.20806482       2.28481235      -5.70880935      -0.17237764      -1.39809219       1.78090127
C        0.91530123       2.60543468      -5.29651353      -0.03729147       0.11585875       0.50126139
C        2.94568445       1.35408654      -4.92728708      -0.75636393      -0.16964601       0.21293498
C        0.35093505       2.06293585      -4.13561199       0.75959957      -0.39080894      -0.54881321
C        1.42639347       0.44441217       1.68564476      -1.15263922      -0.56191247      -0.10711128
C       -0.19659112      -0.98312876       0.58180598      -0.43360942       0.22149308       0.93704425
C       -1.11483440      -0.69066045       1.57639887       1.22961269       1.95489341       2.15343081
C        1.07897689      -0.40610753       0.61967952      -1.62209138       0.31246201       0.56319050
C        2.33112480       0.74837594      -3.79876182       0.41816734       0.06088773      -0.58733726
C        1.04361906       1.09468152      -3.42219064       0.20587514       1.29372866      -0.93487849
C       -0.76186488       0.13946657       2.65988519       1.18046057       0.40649289      -1.03297382
C        0.51890123       0.73791583       2.71885111      -0.06684753      -0.90961496      -0.44011255
N        1.81321086      -0.23624746      -1.76949451       0.52489202      -1.20140650       2.35263250
N       -3.28456996      -1.54520319       3.80419924      -2.14256474      -1.62545401      -1.46220649
C        2.87348868      -0.26905505      -2.78457258       0.44912117       1.09427498      -0.50523877
C        0.62928425       0.46009820      -2.15374706      -0.90465208       0.01756290      -0.25768603
C        1.68452718       2.82001211       3.58554270       0.31931806       0.79125889      -0.33353315
C        1.82565930       0.61711946       4.85473873      -0.20331769       0.41941062       0.26288142
C       -1.94848916       0.28366976       3.59357550       0.72269826       0.62419158      -1.18331672
C       -3.00321910      -0.50961802       2.81143834       0.60956028      -1.36614229       1.70100197
C        0.97602566       1.50839748       3.93302872      -0.57533792       0.66780809       0.05854655
H       -1.44038699      -2.21961591      -0.08804504       0.23208455       0.07760861      -0.21991779
H       -1.17427776      -0.12431083       5.69763185      -0.01930147      -0.07018284      -0.02109473
H        2.59682443       2.73641136      -6.58832738       0.44985600       0.19400963      -0.43990669
H        0.36569525       3.35486128      -5.84123561      -0.12280803       0.04075292      -0.11686939
H        3.96697976       1.08174755      -5.19279001      -0.28569675       0.11884379       0.02673824
H       -0.59920380       2.37202861      -3.77047441      -0.65959397       0.29595596      -0.03343591
H        2.42003741       0.83917984       1.68751409       0.30216584       0.16261870       0.05019119
H       -3.51922319      -2.49679944       3.43102791       0.38306898       1.53074216       0.94410297
H        2.93705918      -1.26548896      -3.22570584       0.28632113       0.05178515       0.09207384
H        3.88436105       0.07788511      -2.43249628      -1.11782701      -0.65416088       0.09143791
H        0.33781985       1.20214554      -1.40780518      -0.02703868      -0.03611549      -0.01011853
H       -0.22231362      -0.20994816      -2.32036541       0.05885303       0.02729092       0.13779171
H        1.99029031       3.37927725       4.48558905      -0.03240360      -0.45707327      -0.20366348
H        2.58910658       2.66556408       2.96747710      -0.42473567      -0.01226661       0.38031062
H        1.04007675       3.53088619       3.02981379       0.18863912      -0.61742625       0.16565666
H        1.29852947      -0.32644025       4.99469902       0.23250994      -0.03643656       0.12644056
H        2.82740857       0.41868914       4.44380142      -0.44452943       0.08206771       0.03067105
H        1.93697288       1.12236520       5.82995464       0.06827848      -0.32447695      -0.36165112
H       -2.21859715       1.31334784       3.77316453      -0.05987785       0.34237058      -0.15067544
H       -3.86676071       0.02022817       2.46852984      -0.53345453       0.15867754      -0.04445153
H        0.04265746       1.81080832       4.45299103       0.56697285      -0.29612803       0.05599803
17
Properties=species:S:1:pos:R:3:REF_forces:R:3 smiles="[H:13][C:10]([H:14])([H:15])[C:11]([H:16])([H:17])[O:9][H:12].[H:4][C:2]([H:5])([H:6])[C:3]([H:7])([H:8])[F:1]" total_charge=0 REF_energy=-9097.213679872842 config_type="DES370K Dimers" pbc="F F F"
F        0.96403003       1.74259007       3.48824000       0.12627174      -0.04226694      -0.04378343
C       -1.23887002       0.99510998       2.99439001      -0.19743455      -0.37198901       0.01225223
C       -0.28100002       2.15890002       3.01171016      -0.30297257       0.69695893      -0.25040630
H       -0.86280000       0.19240999       2.33801007      -0.17783603       0.36453954       0.25779128
H       -2.22126007       1.32626998       2.61775994       0.40452438      -0.14057552       0.15090343
H       -1.37119997       0.58596003       4.01011991       0.04204510       0.19559434      -0.44441110
H       -0.12355999       2.58410978       2.00183010      -0.04087986      -0.29508949       0.46918140
H       -0.63091004       2.97685003       3.67048001       0.19900231      -0.45638196      -0.25575607
O        1.78453994      -0.20647001       0.72235000       0.21795188       0.59881203       0.78046833
C        2.72980976       1.79700994      -0.32977000      -0.08308829       0.25827609      -0.09747035
C        2.84294009       0.30167002      -0.09140000       0.08621737      -0.42334612      -0.25553257
H        1.83223986       0.24945000       1.58851993      -0.08085148      -0.43343163      -0.77193873
H        1.75762999       2.03542995      -0.79306000       0.41530491      -0.07406068       0.20302599
H        3.53371000       2.13887000      -1.00318002      -0.31482182      -0.08766786       0.29700169
H        2.81035996       2.34801006       0.62235003      -0.01663823      -0.16616521      -0.37400527
H        2.75850010      -0.24981999      -1.04751992       0.09932394       0.30332826       0.50495396
H        3.82598996       0.05492000       0.35378003      -0.38125063       0.08218133      -0.18476514
47
Properties=species:S:1:pos:R:3:REF_forces:R:3 smiles="[H:47][C@:19]12[C@:18]([C:14]([C@:16]([C:12]([C@@:17]1([N:3]([C:6]([C:10]([C:15]2([H:42])[H:43])([H:31])[H:32])([H:23])[H:24])[H:20])[H:45])([H:36])[H:37])([H:44])[C:11]([H:33])([H:34])[H:35])([H:40])[H:41])([H:46])[C:13]([H:38])([H:39])[C:2]3=[N+:4]([C:7]([C:9]([C:8]([C:5]3([H:21])[H:22])([H:27])[H:28])([H:29])[H:30])([H:25])[H:26])[O-:1]" total_charge=0 REF_energy=-22089.57774113377 config_type=PubChem pbc="F F F"
O        2.63550808       3.09452727       1.21422358       0.90172239       2.49249544      -2.90567352
C        2.19836773       1.16543057       2.16901305      -0.42018791      -0.77065097       1.00182131
N       -1.16003416      -1.41747401      -2.62977264      -0.09180329       0.45049859      -0.48338696
N        2.58838608       2.42371430       2.23499634      -2.37156261      -3.27460595       1.47883256
C        1.99848070       0.33090299       3.42598250       0.35831852       0.38235511       0.50372417
C       -0.14143465      -1.53409693      -3.69572208      -0.41794749      -1.26497390       0.58383892
C        2.58443548       3.18909504       3.50385882       0.54232143       0.37723528       0.04385896
C        1.79601552       1.14271875       4.72743656      -0.41374412      -0.35147365      -0.19711272
C        2.70589258       2.36626568       4.76188089       0.69086322      -0.53019343       0.14083463
C        1.19614305      -1.81136200      -3.05894015       1.20327238      -0.07683679      -0.05726579
C       -2.91783903       1.55155899       0.91310071       0.51288173       0.56639071      -0.70864650
C       -2.04075525      -0.02316604      -0.85279880       0.47629670       0.59714301       0.72149395
C        1.97595980       0.38704053       0.87158202      -0.14317205       1.13464880      -0.21662878
C       -0.48020158       1.08166232       0.80951401       0.29591187      -0.21649407      -0.85077314
C        1.59721126      -0.75164435      -2.01204250      -0.95536291      -0.31648516       0.04186186
C       -1.74997160       1.23265006      -0.03257499      -0.74052309       0.17320279       1.26073251
C       -0.88667927      -0.22699199      -1.78453586       0.70741654      -1.94332247       0.09288268
C        0.75311416       0.72312882      -0.05182389      -0.53792008      -0.18462748       1.06001422
C        0.44563190      -0.48688576      -0.98256598       0.25558585       0.91249423      -0.48096600
H       -1.13443623      -2.25064275      -2.02186344       0.04999729       0.61506039      -0.56490188
H        1.17916103      -0.38947890       3.27797391       0.19915864       0.44501385      -0.02662108
H        2.89344075      -0.28234217       3.55315878       0.06723636      -0.14651777      -0.02645585
H       -0.13350318      -0.62833223      -4.29747913      -0.07793934       0.08539424       0.07491006
H       -0.37700603      -2.39105699      -4.36047027      -0.15739739       0.60942390       0.28327875
H        1.64423360       3.73543789       3.55283620      -0.02761743       0.01058456      -0.44179562
H        3.39333655       3.92522695       3.36737587      -0.36021157      -0.34572676       0.21441454
H        1.96771373       0.49727394       5.60890390      -0.03041144       0.33506509      -0.45838178
H        0.74854084       1.46217384       4.78247501       0.15257075       0.02307624      -0.04428954
H        3.75329997       2.02229323       4.89214279      -0.54473068       0.32147481       0.07265856
H        2.41673615       3.02279427       5.58808567       0.32742678      -0.20939519       0.02603424
H        1.99317159      -1.80480525      -3.80960367      -0.09033247      -0.10737924      -0.09954314
H        1.21458497      -2.84306381      -2.64644024      -0.19521481       0.63327944       0.01975786
H       -3.01901338       0.78628879       1.65121164      -0.29396247      -0.55482140       0.46991206
H       -3.80084226       1.63924780       0.29966273      -0.56184583      -0.06058635       0.12871160
H       -2.76488922       2.50635364       1.42137041       0.02741832      -0.09639863      -0.01373037
H       -2.14123151      -0.90784381      -0.20923851       0.06493039       0.21583509       0.09145632
H       -2.98284075       0.08143069      -1.36071668      -0.27574137       0.03900371      -0.49239437
H        1.92360070      -0.68381450       1.11699965       0.18241526       0.41811127      -0.01450249
H        2.81710365       0.59836784       0.24143322       0.79230912      -0.27367834      -0.24448110
H       -0.62873624       0.28953031       1.55302348      -0.14462182       0.10780671      -0.00909324
H       -0.29920171       2.02194156       1.33354332       0.12955871      -0.11941358       0.09220629
H        1.85102584       0.16618373      -2.57388375      -0.13032248      -0.21196096       0.52124317
H        2.48551621      -1.12411139      -1.51283047       0.17691868       0.26044380       0.15880426
H       -1.70645378       2.11902561      -0.68231962       0.47265709      -0.40622160      -0.14645743
H       -0.77459083       0.64911916      -2.42996690       0.09336174      -0.17275636      -0.01317766
H        0.93486970       1.62394740      -0.64530299       0.39547817      -0.29810069      -0.06711459
H        0.31950819      -1.40688953      -0.34956268      -0.09254892       0.72497201      -0.52078492
18
Properties=species:S:1:pos:R:3:REF_forces:R:3 smiles="[H:16][C:8]1=[C:5]([C:4](=[O:1])[O:3]/[C:11]1=[N:2]/[N:12]2[C:9](=[C:6]([C:7](=[C:10]2[H:18])[H:15])[H:14])[H:17])[H:13]" total_charge=0 REF_energy=-15474.923829885347 config_type=PubChem pbc="F F F"
O        1.45071455       4.21218016       3.20219090       1.62944345      -0.49506581       0.20440213
N        1.86052039       0.17340856       1.04307546       1.58433505       4.14357072       2.42454899
O        2.12821617       2.28723433       2.05939295       1.28232992       0.62899983       1.60864165
C        1.24718275       3.28760888       2.48767950      -1.98388082       1.73296519       0.00543089
C       -0.08348868       3.05867960       1.87997391      -0.61950156      -1.90467916      -0.39956896
C       -0.30723319      -2.07026098      -0.67898915      -0.54971493       0.73653949      -1.87933554
C        0.27144899      -1.27509246      -1.75067136       1.46303850       0.11533396       0.70296833
C       -0.00906161       1.87351872       1.25845029       0.15558222       0.10703913       0.04832282
C        0.13252594      -1.53628323       0.48185637       1.45040190       0.39379164       1.35071151
C        1.25683399      -0.41002397      -1.22061608      -2.19024855      -1.12378186       0.71507152
C        1.42563298       1.36718323       1.45543071      -2.82145834      -4.61421570      -3.86801467
N        1.12077667      -0.54072867       0.14729931      -2.41340261      -1.22072284       0.51722843
H       -1.02058289       3.60141089       2.08850171       1.11028788       0.02350514      -0.15155408
H       -1.02170358      -2.91035149      -0.80091069       0.63958798       0.97233867       0.16925260
H        0.06222116      -1.31639645      -2.79413316      -0.05588619      -0.37569583      -0.40715116
H       -0.83861325       1.33086475       0.77088848       0.96856251       0.21230409       0.31477800
H       -0.12601975      -1.91101859       1.52029540       0.86852404       1.05849464      -1.43255295
H        1.97581889       0.30325591      -1.62452528      -0.51901816      -0.38969321       0.07527045
49
Properties=species:S:1:pos:R:3:REF_forces:R:3 smiles="[H:37][c:15]1[c:10]([c:19]([c:11]([c:16]([c:23]1[C:27]([H:44])([H:45])[C:26]([H:42])([H:43])/[N:4]=[C:7]2/[c:22]3[c:14]([c:8]([n:5][c:9]([c:21]3[C:6](=[N:3]2)[N:25]([H:41])[C:29]([H:48])([H:49])[C:28]([H:46])([H:47])[c:24]4[c:17]([c:12]([c:20]([c:13]([c:18]4[H:40])[H:35])[F:2])[H:34])[H:39])[H:31])[H:30])[H:36])[H:38])[H:33])[F:1])[H:32]" total_charge=0 REF_energy=-35591.77605027644 config_type=PubChem pbc="F F F"
F       -3.34895751      -3.81933734      -5.20519301      -0.65322778       0.92893206       1.04148831
F        1.50798496      -0.73093710       6.03231623       0.61608593      -0.06670241      -1.71028370
N        0.55333373       1.49651196      -0.13033769      -1.37431398      -1.22452634      -1.35995039
N       -1.57275698       2.46222188      -0.46322176       0.83951757      -0.31585961       1.40362410
N        1.45457383       4.07973053       3.60769942       2.33214225      -1.94222789      -0.78642638
C        1.50666352       1.72970154       0.67888384       5.15629556      -4.36872316      -4.53423530
C       -0.42624388       2.35479786       0.18772866      -5.12054918      -0.34462644      -3.18996120
C        0.28639259       4.49216320       3.27716472      -3.40593922       1.65825870      -1.17707855
C        1.93735554       3.11127426       2.78616931      -0.20840149       0.06084242      -0.03243464
C       -4.20315454      -2.20346592      -3.55752180      -0.85587492      -1.44306740      -1.66394590
C       -1.88529775      -2.59386823      -3.86102388      -0.06912863       0.85762599       1.52825721
C        1.93014457      -1.26530812       3.63217356       1.05475453       0.81126936      -0.27209272
C        3.31153037       0.26874771       4.90646650       0.00090989       1.54204374       0.13968897
C       -0.53140650       4.03995492       2.21045663      -0.56760518       0.55753129      -0.89075639
C       -3.88263414      -1.28402469      -2.62121913      -0.67763871       1.88335373       1.39617824
C       -1.59594009      -1.65925882      -2.81552670      -0.33594872      -1.59871775      -1.42495148
C        2.71094205      -1.00988219       2.46853473       0.86966239       1.49347245       2.32875377
C        4.04204490       0.51992999       3.73958161       0.73654164       0.28522599      -0.70041136
C       -3.19995282      -2.87617014      -4.20377395       2.32959715      -0.39436044      -0.54766703
C        2.23143091      -0.55853412       4.85669090      -1.02637146      -2.05792683      -1.09331409
C        1.23150982       2.63473656       1.67238678       2.53038856       1.92855236       3.62470368
C        0.01649603       3.10692026       1.32779928      -2.81554168       2.87071329       2.70179696
C       -2.60650346      -0.97449205      -2.18616936       0.90792676       0.78024325       0.88892933
C        3.79971697      -0.12912039       2.50291278       0.39008494       0.41205498       1.81846674
N        2.65890195       1.11150875       0.15093263       0.15979425       1.11850782       2.34419612
C       -1.91871879       1.47811951      -1.54177902       5.11905087      -1.21430571       1.30409251
C       -2.24912426       0.03740539      -1.04171035      -0.80757751       0.68849257      -1.81068995
C        4.69979813       0.20628934       1.32018896      -0.39012415      -0.38561930       0.10649622
C        4.05602695       1.34123995       0.48596501       0.40553029      -0.93782679      -0.52613455
H       -0.11023758       5.36990692       3.78155257       0.07478980      -0.26869614       0.46396093
H        2.91114070       2.71295812       3.01327898       0.02921732      -0.00543826       0.14381786
H       -5.21161983      -2.43662784      -3.85322235      -0.29327066       0.25257348       0.17043056
H       -1.07978318      -3.14870403      -4.28249786       0.32299580      -0.25216797      -0.41725321
H        1.19809177      -2.03310058       3.45442440      -0.53816904       0.14632163       0.78893691
H        3.41887524       0.86350709       5.83311416       0.34650082      -0.49422074      -0.73094348
H       -1.52474974       4.52648379       2.01328041       1.21282812      -0.67429095       0.34374678
H       -4.68311450      -0.69162045      -2.21749422      -0.37245309      -0.04461576       0.30660916
H       -0.58468674      -1.57975481      -2.48379967       0.52554176       0.25231194       0.01696693
H        2.55807593      -1.35543249       1.49838402      -0.98358731      -1.36737293      -1.05635411
H        4.83034565       1.30649575       3.73580577      -0.54586860      -0.80778319       0.30690617
H        2.40842273       0.48178118      -0.58452818       0.08695328       0.05311119      -0.25380339
H       -2.64702175       1.81031575      -2.16338537      -2.28876700       1.39594766      -1.42493952
H       -0.95920703       1.38733276      -2.15438721      -1.23564119      -0.01055728       0.40499414
H       -3.07088110       0.18489953      -0.38387857      -0.78913124      -0.36545446       0.68116007
H       -1.40349934      -0.28333018      -0.49429152       0.73315661      -0.62340853       0.52656131
H        5.69050028       0.51613110       1.68375256      -0.39927083       0.12971330      -0.06241979
H        4.92311337      -0.65550539       0.67234125      -0.46270383       0.08208656       0.30441762
H        4.11048224       2.21698191       1.13643708       0.13742250       0.28181394      -0.77268564
H        4.64128019       1.37011196      -0.49177775      -0.69156320       0.73900244       1.35599314
30
Properties=species:S:1:pos:R:3:REF_forces:R:3 smiles="[H:21][c:7]1[c:8]([c:10]([c:13]([c:11]([c:9]1[H:23])[H:25])[O:3][C:18]([H:29])([H:30])[C:4]2=[N:1][N:16]([c:14]3[c:12]([c:5]([n:2][c:6]([c:15]3[N:17]2[H:28])[H:20])[H:19])[H:26])[H:27])[H:24])[H:22]" total_charge=0 REF_energy=-21694.900533232005 config_type=PubChem pbc="F F F"
N       -1.11508963       1.23279544      -0.52418361      -0.07466001       0.62537461       1.96210532
N        3.23997452       1.44684495      -3.06213830      -0.87253226       0.93998766      -1.08192139
O       -0.22688446       1.79582598       2.90823176       1.13961927      -0.62286595       0.42289351
C       -0.20960358       1.64385726       0.37943553      -0.88119255      -1.47653993      -5.10742436
C        2.26887800       1.26277598      -3.97716424      -1.96329421      -1.25081688       2.00149234
C        2.84050991       1.57776286      -1.77885101      -2.26758199      -0.42068014      -0.18664879
C        0.47466664      -2.20558164       3.65272309      -0.86324166      -2.02333497       0.01866551
C        1.18747296      -1.21894739       4.25367786       0.74545153      -0.95219420       1.75478165
C       -0.61351762      -1.95123599       2.82132365       1.25964154       1.87804821      -0.14382916
C        0.87061622       0.11632510       4.04742243       1.18293029      -1.64948461       0.84850775
C       -0.91232441      -0.61496947       2.50231244       2.97736349      -0.33013925       2.65580947
C        0.93065440       0.87254464      -3.55241153       2.61885666       1.56875439      -1.42121370
C       -0.09077064       0.41802364       3.16002824      -2.76878417       0.39416505      -2.95841066
C        0.51506786       1.06143167      -2.29707596      -0.23780081      -0.42163637       1.59573395
C        1.48119261       1.46872737      -1.37860999       1.92130387      -0.15210283       0.17545757
N       -0.79405496       0.84895732      -1.87786100       0.74928010       0.65323677       2.10970283
N        1.11634698       1.62333503      -0.03956208       0.06991196       0.60383326       1.70048640
C       -0.66003463       2.31589903       1.66003957      -1.33509187      -2.59292034       0.01451709
H        2.33136787       1.38919320      -5.05705545       1.12252825      -0.26553210       0.33296982
H        3.55400707       1.80308809      -0.99739680       0.31437169      -0.09415755      -0.24572880
H        0.65214712      -3.26792667       3.90002515       0.23264271       0.76476765      -0.19425746
H        1.92735674      -1.59815953       5.01599504      -0.61484465       1.07941577      -0.98251356
H       -1.02891109      -2.79414699       2.32359602      -0.83054776      -0.20927409      -0.26085148
H        1.43418207       0.80732777       4.61175158       0.24361464       1.12578656       0.06534350
H       -1.66418335      -0.48774109       1.81274249      -1.40375014       1.08877925      -1.36131864
H        0.15400460       0.66701540      -4.20684622      -0.89675430      -0.48272657      -1.79872541
H       -1.47045360       0.26184290      -2.38446138       0.72283979       0.74504928       0.91106162
H        1.79102614       1.96905854       0.62223742       0.13758313      -0.03311839      -0.24390574
H       -0.38515649       3.34988882       1.65768912      -0.12141495       0.53078987      -0.01588044
H       -1.72317050       2.08150389       1.67970218      -0.30863919       0.98186154      -0.56849127
42
Properties=species:S:1:pos:R:3:REF_forces:R:3 smiles="[H:32][c:18]1[c:16]([c:12]([n:4][c:15]([c:17]1[H:31])[C:25]([H:41])([H:42])[N:22]2[c:19]3[c:13]([n:2][c:11]([n:3][c:14]3[N:21]([H:35])[C:24]([H:39])([H:40])[C:6]4=[N:1][C:7](=[C:10]([O:5]4)[C:23]([H:36])([H:37])[H:38])[H:26])[N:20]([H:33])[H:34])[C:8](=[C:9]2[H:28])[H:27])[H:29])[H:30]" total_charge=0 REF_energy=-30403.006058633917 config_type=PubChem pbc="F F F"
N        0.91392760       1.99166181       2.73597982      -2.66541234       0.50018635       0.37367978
N       -0.76560567      -3.44257352      -0.11171017       0.55866538      -0.32722369       0.13492105
N       -1.72232673      -1.45041595       0.77140721       1.05566888       1.68599791       0.56632492
N        1.33684041       2.03682174      -1.03551433       0.13663042      -0.38282524      -0.61838459
O       -0.91251848       3.00771954       3.61107947      -0.68213788      -0.38548672      -0.90920511
C       -0.41655920       2.05095544       2.77814390       1.97782123      -1.00177153      -0.40818395
C        1.25824698       3.00569035       3.58408477       0.74289557       1.37050598       0.95437545
C        1.69898798      -3.33826730      -0.62587247      -0.02318879       0.38708296       0.32343862
C        2.62755444      -2.32903907      -0.46818290      -1.64721933       0.10931747      -0.21070482
C        0.16852712       3.66410973       4.09314897       2.67147702      -0.76471525      -0.19225883
C       -1.72025845      -2.70470617       0.41988837       1.23907647      -1.18019564      -1.47234314
C        0.86960136       2.63407972      -2.13968752      -0.56149457       0.59844057      -0.07464593
C        0.40612431      -2.81657002      -0.21352349       1.79080045      -1.58529136      -0.68664821
C       -0.56633184      -0.85680423       0.58269426       1.30849760       2.69549577       1.02593479
C        2.12785950       0.95804172      -1.21217713      -0.35409566       0.83183469      -0.58008920
C        1.12364819       2.22542228      -3.44341633      -0.06811209       0.04483343      -0.22537574
C        2.51974525       0.53093696      -2.48129318      -0.51566384      -0.15159161      -0.23847136
C        1.96913900       1.14609774      -3.61671589       0.71432745      -0.30921540       0.37430530
C        0.60305094      -1.51867888       0.12588765      -0.44976395       1.55480170       0.12992202
N       -2.88713357      -3.29962299       0.42618503      -2.77867035      -1.53903027       0.25587423
N       -0.49077532       0.48426792       0.90762957       0.62834954       0.25301605       0.35948890
N        1.95303192      -1.16659353      -0.02952031       0.90034514      -0.55239324       0.22708910
C        0.16278120       4.81253149       5.04908516      -1.40083999       0.01656699      -1.16136854
C       -1.26866577       1.06263586       2.02808394       0.77306322      -0.32075038      -0.45718127
C        2.54757263       0.17782041       0.01216998      -0.43103742      -0.15064960      -0.35657705
H        2.29781630       3.23797490       3.82698800      -0.47651713      -0.09628686      -0.25373225
H        1.86614504      -4.35106180      -0.94823120       0.18888071       0.03496871       0.03192392
H        3.69034030      -2.38675926      -0.70506893      -0.45354003       0.46585365       0.28798965
H        0.20091422       3.50572326      -2.03693340       0.46350441      -0.51925288       0.42572178
H        0.67097236       2.73561218      -4.31235836       0.30768717      -0.30193697       0.76415255
H        3.16347506      -0.34576765      -2.54307935      -0.15137373       0.29439933      -0.20336903
H        2.23027231       0.81786164      -4.61852119      -0.02473202      -0.08785497       0.23022243
H       -2.82189081      -4.05991266      -0.23424635      -0.93019690      -0.07461083       0.19449678
H       -3.64052293      -2.63437769       0.40041476      -0.36190563      -0.48029439      -0.15159056
H        0.39646045       0.95415022       0.67333295      -1.16676035      -0.25423110       0.49166984
H        1.18331798       5.12202551       5.24651863      -0.02792698      -0.18924704       0.14089723
H       -0.36682872       4.48139002       5.93587686       0.07583992       0.43637344       0.35793196
H       -0.36855457       5.67042210       4.57354595       0.27980793      -0.50373849       0.60255162
H       -1.58926389       0.26578917       2.69867875      -0.00954641      -0.04111281      -0.05483905
H       -2.13809488       1.52622344       1.63388088      -0.90465070       0.52298123      -0.12318492
H        2.29405620       0.74254882       0.91308313      -0.04136194      -0.31751893      -0.05383144
H        3.62036421       0.07807945      -0.02629356       0.31772721      -0.28399720       0.18102722
7
Properties=species:S:1:pos:R:3:REF_forces:R:3 smiles="[H:2][O:1][H:3].[H:6][S:4][S:5][H:7]" total_charge=0 REF_energy=-23787.756772906992 config_type="DES370K Dimers" pbc="F F F"
O       -6.45191002       2.78997993      -3.35535002       0.31411096      -0.28935382       1.32604209
H       -7.05790996       2.47994995      -2.64477992       0.78381624       0.37705407      -0.83926545
H       -5.57003975       2.84577989      -2.92238998      -1.09458617      -0.08980236      -0.48673191
S        0.00000000       0.00000000       0.00000000      -0.15015145      -0.10988538      -0.09727380
S       -0.13419999       1.46281004      -1.46981001       0.08899301      -0.13448717       0.20156299
H        0.52912998       0.65885001       1.05281997       0.08740409       0.21630433      -0.45259579
H        0.82464004       1.02144003      -2.31142997      -0.02773614       0.02934376       0.34864802
20
Properties=species:S:1:pos:R:3:REF_forces:R:3 smiles="[H:19][N:12]1[C:9](=[O:4])[C:14]([N:13]([C:7]1=[O:2])[H:20])([C:8](=[O:3])[N:11]([H:18])[C:6](=[O:1])[N:10]([H:16])[H:17])[O:5][H:15]" total_charge=0 REF_energy=-21492.627589028925 config_type=PubChem pbc="F F F"
O        3.56277968       2.77483608      -0.03512934       0.06348893      -0.45176770      -0.05128203
O       -3.38697312      -0.83112297       0.79602557      -0.32061521      -0.03699945       0.57905993
O        1.77597692      -0.30300865       1.49779268      -2.06699647       0.83519325      -0.16852431
O        0.40268437      -1.29996059      -1.32810614      -1.37435356       1.49047778       4.12313556
O       -0.70394681       1.61274566      -0.43549720       1.68409640      -1.16112962       0.60220902
C        3.09762098       1.98714604       0.77144983       2.21646264       2.04444894       0.13584973
C       -2.18683050      -0.75039718       0.69506793      -4.57639799       1.04640184       1.43758398
C        1.14159693       0.62575570       0.98162477       0.89321647      -2.77347393       0.30912881
C       -0.28052477      -0.94294605      -0.31455777       2.43600496      -0.98615636      -6.91955369
N        3.89126017       1.51645794       1.80820360      -1.28293234      -0.21754094      -0.58172213
N        1.73077919       1.75790121       0.66112071      -1.91896811       1.27476806      -0.13266223
N       -1.47143290      -1.53342674      -0.09043429       2.51667640      -1.84653714      -1.34541361
N       -1.40398929       0.22072952       1.24293973       1.60032005      -0.21458781       0.79944483
C       -0.28935371       0.41417123       0.37294326      -0.31167358       1.56040748       0.44628873
H       -1.22120092       1.41493573      -1.22042224       0.13574698      -0.46027652       0.02821013
H        3.46761825       0.98427190       2.59667065       1.09700326       0.46660304      -1.33214667
H        4.89597418       1.70441808       1.61542609      -1.45792495      -0.41954632       0.79241237
H        1.09996506       2.38734546       0.11751755       1.57171177      -0.33197395       0.38754926
H       -1.74181268      -2.19368956      -0.82422922      -0.50314027       0.34671662       0.96013507
H       -1.79664634       1.03738179       1.67513826      -0.39409279      -0.16587357      -0.06740837
11
Properties=species:S:1:pos:R:3:REF_forces:R:3 smiles="[H:6][C:4]([H:7])([H:8])[C:5]([F:1])([F:2])[F:3].[H:10][O:9][H:11]" total_charge=0 REF_energy=-12361.50277557366 config_type="DES370K Dimers" pbc="F F F"
F       -1.25141990       1.49197995       1.08018005      -1.12276484       0.57913231      -0.17158482
F       -2.01921010       0.68538004      -0.86451000      -0.46305790       0.24762741       0.43951969
F       -0.43033999       2.13817001      -0.82382000      -0.03969418      -0.11495626       0.04550041
C        0.00000000       0.00000000       0.00000000       2.36996806      -2.05370980      -1.00263569
C       -0.93847996       1.07628000      -0.16901000      -0.29367758       0.93389443       0.69829409
H        0.21961000      -0.32723999      -1.03018999       0.25251060      -0.20507957       0.51325805
H       -0.35591000      -0.86997002       0.57714999      -0.18982078       0.71782904      -0.29418464
H        0.93304002       0.36853001       0.45850998      -0.52630355      -0.10809478      -0.23118706
O        0.27956000       5.37841987       0.28091001      -0.47890091       1.25461623      -0.42165915
H       -0.62857997       5.73385000       0.41214999       1.11895300      -0.41799118      -0.18990751
H        0.75042999       6.08067989      -0.22244001      -0.62582097      -0.83277771       0.61672995
44
Properties=species:S:1:pos:R:3:REF_forces:R:3 smiles="[H:35][C:18]1([C:19]([C:21]([C:23]([C:22]([C:20]1([H:39])[H:40])([H:43])[H:44])([C:5]#[N:1])[N:12]([C:7](=[O:2])[C:17]([H:33])([H:34])[N:11]2[C:10](=[C:9]([C:8](=[N:6]2)[C:14]([H:24])([H:25])[H:26])[N+:13](=[O:3])[O-:4])[C:15]([H:27])([H:28])[H:29])[C:16]([H:30])([H:31])[H:32])([H:41])[H:42])([H:37])[H:38])[H:36]" total_charge=0 REF_energy=-29504.543793156954 config_type=PubChem pbc="F F F"
N        1.13218137       3.68239906       0.88490262       1.03108655      -3.52221784       1.07308785
O       -1.31892131       1.66273692       2.06689145       1.19001183      -0.80488377      -0.55827315
O       -0.37919996       0.53057919      -4.84247158       0.54301502      -0.98842645      -0.40002374
O       -1.53411911       2.15502813      -4.09222887      -0.16318769       0.24980214       0.02955607
C        1.37544003       2.59583356       1.27761450      -1.56127638       3.04351900      -0.91180417
N       -1.31489024      -1.34631167      -1.29290531      -0.09522241      -0.19234790       0.74928779
C       -0.87453745       0.66694476       1.49605300       0.34577870       1.39950479       1.22693747
C       -1.05574546      -1.06265590      -2.52687356      -0.78827359       1.68713117      -0.75227528
C       -1.26662610       0.37224712      -2.75570581       0.74954321      -2.73787754       0.16141390
C       -1.65492389       0.88402088      -1.55718062      -0.28119098       0.86511085       1.12488396
N       -1.65523980      -0.19187103      -0.70048521      -0.32323674       1.19633763       0.77445929
N        0.50195015       0.29353336       1.52757736      -1.63923373      -0.38070363      -0.80585575
N       -1.04124651       1.04230782      -3.97674129      -0.54841999       1.34441563      -0.00797686
C       -0.90014002      -2.15792368      -3.47399614       0.72906199      -0.34524427      -0.66166329
C       -2.02025292       2.31682517      -1.18402657      -0.05098113      -0.45337755      -0.49923313
C        0.83993783      -1.08685241       1.12139484       0.68594662       0.43371450      -0.19925877
C       -1.94175408      -0.15353403       0.74037940       0.90010338      -0.68188015      -0.35341035
C        3.92004516       1.08918878       3.94382359       0.81943500       0.26910539      -0.75883578
C        2.73821976       2.02824428       4.11186316      -1.11330181      -0.44402925      -0.21889068
C        3.84318234       0.15269845       2.70068433      -0.36405928       1.57857378       0.02035102
C        1.49107637       1.42272916       3.45576145      -1.30426533       1.12413569       0.65571202
C        3.05631187       0.85489156       1.56580951      -0.00487767      -1.24306169      -0.12467835
C        1.57799532       1.26703437       1.91507032       0.28580253      -0.00643049       0.83168231
H       -1.20864627      -3.06492708      -2.99259994       0.12716367      -0.48956632       0.31553821
H       -1.55980251      -2.03533695      -4.31598041       0.03637977       0.21933392      -0.48623182
H        0.13627066      -2.22794888      -3.80379960      -0.16758569      -0.15354277      -0.27131755
H       -1.14843033       2.90170100      -0.84804795      -0.31388346      -0.33515094      -0.20891689
H       -2.49401138       2.80694677      -2.05894968       0.54617836      -0.38604248       0.62409148
H       -2.74223897       2.30301275      -0.38126472      -0.07063566       0.03009164       0.31415968
H        1.13580736      -1.10088370       0.09295722       0.40961032      -0.02507623      -0.64358036
H        0.01057115      -1.76869176       1.14590784      -0.50379087       0.12489045       0.40017090
H        1.64648058      -1.54951284       1.70219435      -0.26080106       0.49405495       0.13030739
H       -1.99146555      -1.17067883       1.16667237       0.03654774       0.35775992      -0.72420444
H       -2.91885565       0.29664997       0.88856741       0.29987582       0.28511828       0.22044739
H        3.96354725       0.48879389       4.83112385       0.50469555      -0.32779527       0.41633883
H        4.81720926       1.71447768       3.83553149      -0.04849036      -0.41130131       0.37785562
H        2.92006042       2.99228956       3.64616921       0.06300251       0.18167270       0.13487390
H        2.49490251       2.17055096       5.18239834       0.32540147       0.15667907      -0.62156204
H        4.85539009      -0.09975610       2.31766762      -0.78348613      -0.02570031       0.40108677
H        3.29488256      -0.72183940       2.99465802       0.04455527      -0.67249583      -0.03632376
H        0.58601134       2.04966726       3.71050241       0.96608529      -0.74045215      -0.44409235
H        1.27025857       0.43103734       3.86024763       0.21711330       0.04387257      -0.07374106
H        3.63501598       1.67533030       1.17013838      -0.15191991       0.62982260       0.29555658
H        3.06209757       0.17482176       0.73449135      -0.31981910      -0.34882154      -0.51236000
18
Properties=species:S:1:pos:R:3:REF_forces:R:3 smiles="[H:4][C:1](=[C:2]([H:6])[C:3]([H:7])([H:8])[H:9])[H:5].[H:13][C:10](=[C:11]([H:15])[C:12]([H:16])([H:17])[H:18])[H:14]" total_charge=0 REF_energy=-6420.664767756428 config_type="DES370K Dimers" pbc="F F F"
C        3.25044012       6.05959987     -10.68209075       0.55288537      -0.15549004      -0.72383108
C        3.86983013       5.72545003     -11.83267974      -0.52207822       0.35504599       0.71375419
C        3.28029013       4.72439003     -12.81551932      -0.24897028       0.35281556       0.38200914
H        3.68761015       6.80836010     -10.01167106      -0.27507486      -0.33692437      -0.31529187
H        2.29714012       5.60635996     -10.38712024       0.45925237       0.11640780      -0.09463191
H        4.78383970       6.28112984     -12.08047961      -0.30262645      -0.47966003      -0.04481911
H        2.89556003       5.26453018     -13.69690989       0.17816304      -0.31653779       0.25597425
H        2.43042016       4.25543975     -12.29166984       0.28271376       0.03198272      -0.47420737
H        3.96293998       3.92957973     -13.16030978      -0.12925815       0.53527006       0.23771498
C        4.21201992      -0.00965000     -11.67974948      -0.72176716       1.42283171      -1.13669752
C        3.82324004       1.29339993     -11.76694965       1.17709635      -1.53034821       1.24010422
C        3.88339019       2.20266008     -10.54741001      -0.39424755       0.10039918      -0.40185169
H        4.24838018      -0.58855998     -12.60967063      -0.11428453      -0.00399139       0.53066790
H        4.47125005      -0.52539998     -10.74808024       0.01058958       0.51387469      -0.39184292
H        3.51671004       1.75927996     -12.71277999       0.19429696      -0.46534837       0.40466641
H        2.84952021       2.37488007     -10.20382022       0.42570865       0.21434900       0.03553336
H        4.32529974       3.17207003     -10.83302020      -0.27358855      -0.38215087       0.29649891
H        4.46684980       1.78288996      -9.71076011      -0.29894800       0.02812141      -0.51427660
45
Properties=species:S:1:pos:R:3:REF_forces:R:3 smiles="[H:35][c:18]1[c:16]([c:20]([c:24]([c:26]([c:22]1[H:39])[C:11](=[O:1])[O:9]/[N:8]=[C:15]([H:32])/[C:13]2=[C:14]([N:28]([N:7]=[C:12]2[C:29]([F:2])([F:3])[F:4])[C:31]([H:43])([H:44])[H:45])[S:10][C:30]([H:41])([H:42])[c:27]3[c:23]([c:19]([c:17]([c:21]([c:25]3[Cl:6])[H:38])[H:34])[H:36])[H:40])[Cl:5])[H:37])[H:33]" total_charge=0 REF_energy=-73591.42065638653 config_type=PubChem pbc="F F F"
O        3.10622909       1.53361776      -0.30785880      -3.08528418      -0.89495698      -1.62672237
F       -3.01192138       4.09796454      -2.45715258      -0.20284565       0.89132077       0.38584489
F       -2.46915481       5.25402405      -0.61581299      -0.44498061      -0.75070814      -0.95426541
F       -4.48147056       4.42304852      -0.81718621       0.86927586       0.10293530      -0.79847450
Cl       5.08109238      -0.01163772      -1.80455420      -0.60752169      -0.51605234       0.11805351
Cl      -0.65548525       0.16950190       4.65511562       0.85838033      -0.37978498      -0.10216100
N       -3.57816169       1.90757015      -0.18116537       0.64998282       0.38139581      -0.43605597
N        0.92917808       3.01316859      -0.88797758       0.47368649       1.76879634       0.46481897
O        1.09584191       1.71189405      -1.44495342      -1.42624634      -0.04481020       0.75385837
S       -0.22225175       0.32440801       1.12517007      -0.17036422      -0.89094447       0.16448046
C        2.19935955       1.05103387      -1.02078805       3.41201206       2.09780702       2.10097196
C       -2.73163602       2.89391543      -0.49192093       0.89223092      -1.19066607       1.04466395
C       -1.36328910       2.50353684      -0.15188126      -1.79317039       2.38982455      -1.42285550
C       -1.48879478       1.27797993       0.38905706      -0.12615308      -1.08032987       0.51115676
C       -0.20215807       3.37569954      -0.38048992       0.99364550      -3.32737172      -0.59124442
C        2.45164373      -2.94192097      -2.53877113       0.45927195       0.01726565      -0.27004855
C        3.29339053      -0.88770506       4.77289106      -1.10156170      -0.00703795      -0.29376534
C        1.24442770      -2.30531190      -2.33501051      -1.57236705      -1.35262918      -0.30795939
C        3.77859928      -0.18640063       3.68794252       0.53401025       0.29650344      -0.30436578
C        3.63286450      -2.23255179      -2.33579347      -0.33777319       0.10437198       0.61934328
C        1.90615942      -0.83931086       5.01808740      -0.37730639       0.54487230       0.00452625
C        1.12727108      -1.04851577      -1.82301161       1.14312151       1.02293306       0.13279633
C        2.94628193       0.59169713       2.88255646       0.02474141      -0.38318982       0.16214183
C        3.57363178      -0.92167125      -1.84508178      -0.81950063       0.56741062      -0.06182204
C        1.05404051      -0.04018900       4.21985580       0.98457493      -0.25430590       0.33805799
C        2.31162062      -0.31333873      -1.53407023      -0.29098579      -1.34665353      -1.20398738
C        1.58020785       0.67237360       3.12184622      -0.39430089      -0.65612481       0.49112806
N       -2.81904957       0.91527270       0.32369510       0.43334793       0.07955382       0.77204813
C       -3.17798088       4.19551637      -1.12830625      -0.51089542      -0.92284510       1.37345796
C        0.66588145       1.45608254       2.23772814       0.43460507       1.65011723      -0.27307500
C       -3.39916203      -0.34283421       0.85351663      -0.08870806       0.40418894       0.54269517
H       -0.29214166       4.36125614       0.01589128       0.48395659       0.68424677      -0.26058009
H        2.44456770      -3.97271821      -2.90932439       0.23392439       0.51299841       0.18284166
H        3.97974827      -1.47874258       5.37634279      -0.42290468       0.10414009      -0.03119156
H        0.30451822      -2.83406637      -2.57312820       0.69683194       0.19489110       0.15672704
H        4.84234049      -0.24768517       3.45604684      -0.32387323       0.13953990       0.02799608
H        4.59609606      -2.70034025      -2.47352836      -0.00888077       0.12575365      -0.18925471
H        1.47416582      -1.36960123       5.86092951       0.08251584       0.08863870      -0.14813917
H        0.12831157      -0.63368175      -1.70190904       0.53726020       0.16071574       0.16519543
H        3.35609867       1.12221148       2.04004278       0.02655882       0.03491050      -0.13479909
H       -0.00230316       2.04057457       2.87175395      -0.31886038      -0.26783198      -0.27467997
H        1.23929824       2.19527235       1.63961425      -0.23282079      -0.69884882       0.31294135
H       -3.14473340      -1.17074535       0.18803682      -0.21971374       0.16877999       0.09549845
H       -2.99895856      -0.57183597       1.86747195      -0.02979780       0.38240331      -0.83333222
H       -4.49123857      -0.22384200       0.96905871       0.68238947       0.04746602      -0.41322856
26
Properties=species:S:1:pos:R:3:REF_forces:R:3 smiles="[H:6][C:3]([H:7])([H:8])[C:2](=[O:1])[C:5]([H:12])([H:13])[C:4]([H:9])([H:10])[H:11].[H:19][C:16]([H:20])([H:21])[C:15](=[O:14])[C:18]([H:25])([H:26])[C:17]([H:22])([H:23])[H:24]" total_charge=0 REF_energy=-12659.647832738508 config_type="DES370K Dimers" pbc="F F F"
O        2.08831000       0.67934996       1.71867001       0.36102239       1.59296539      -0.41958516
C        1.72361994      -0.45063001       1.74283993       0.20814358      -2.01695931       1.69637422
C        2.55183005      -1.48519992       2.58640003      -0.43295525      -0.11302440      -0.59783606
C        0.00000000       0.00000000       0.00000000      -0.30133475       0.29328679      -0.43934994
C        0.44488001      -0.93962002       1.09742999       0.52150101      -0.57077643      -0.05358319
H        2.15504003      -2.50676012       2.46152997       0.20581714       0.43685390       0.11065093
H        2.53170013      -1.22863996       3.65895986      -0.04129276       0.05187918      -0.55528159
H        3.59910011      -1.46983993       2.24059010      -0.46903213       0.07727314       0.18477107
H       -0.09888000       1.03981996       0.35440001       0.09158674      -0.53430931      -0.15122776
H       -0.95657998      -0.30954999      -0.45359000       0.45108393       0.09765331       0.21628335
H        0.78424996      -0.03452000      -0.77484000      -0.47471833       0.26182219       0.17562784
H       -0.28437999      -1.11309993       1.91200006       0.26211532       0.09256376      -0.42167868
H        0.71007997      -1.92471004       0.66765004      -0.43057577       0.30215302       0.26436380
O        5.42131996       3.09402990       4.72674989       0.00266872       0.27727238      -0.06715255
C        4.62151003       2.85259986       3.85113001       0.64784389      -0.88586735       0.51641263
C        5.02393007       2.17107987       2.56278992      -0.08386548      -0.48533470      -0.38186071
C        2.57146001       2.01607013       5.12073994       0.37453507      -0.45144545      -0.70013008
C        3.14397001       3.01524019       4.06859970      -0.98909819       1.16407931       0.31546558
H        5.97370052       1.61523997       2.63752007      -0.36463539       0.51933081       0.19050703
H        5.09945965       2.88578010       1.72607005      -0.16608833      -0.24333445       0.33925017
H        4.21397018       1.45556998       2.34227991       0.38601928       0.32449636      -0.24180519
H        1.53110004       2.23510003       5.41445970       0.51627040       0.03536588      -0.31906720
H        3.19909000       2.00926995       6.02774047      -0.24726253       0.09733575      -0.48144919
H        2.60403990       1.01313996       4.66283988      -0.13197626       0.24932189       0.41707444
H        2.66849994       2.98619985       3.06932974      -0.18818047      -0.26981963       0.78894590
H        2.95911026       4.01771020       4.50026989       0.28863860      -0.30591716      -0.38405150
17
Properties=species:S:1:pos:R:3:REF_forces:R:3 smiles="[H:6][C:2]([H:7])([H:8])[C:4]([H:11])([H:12])[C:5]([H:13])([H:14])[C:3]([H:9])([H:10])[F:1].[H:16][O:15][H:17]" total_charge=0 REF_energy=-9097.260058740458 config_type="DES370K Dimers" pbc="F F F"
F        2.37816000       0.44196999       2.89056015       1.86044538      -0.16103861      -0.30249997
C        0.00000000       0.00000000       0.00000000       0.54133715       0.13076773      -0.11772951
C        1.04244995       0.57611001       3.00170994      -1.67738670      -0.58061044       0.22762151
C        0.59188002       1.30967009       0.58956003       0.23541468      -0.46505486      -1.52368553
C        0.48034999       1.59698987       2.04627013      -1.19896453       0.72961437       1.16099322
H        0.52034998      -0.92262995       0.30756000      -0.19441386       0.44025640      -0.07597662
H        0.17209999       0.15833000      -1.07791996      -0.29320617      -0.61738510       0.30527661
H       -1.08195996      -0.13375001       0.16760999       0.46300039       0.22711961       0.06093447
H        0.57125998      -0.39191002       2.74410009       0.27269497       0.21566142       0.25362454
H        0.83454996       0.77785999       4.07012987      -0.15727924       0.18477002      -0.61036383
H        0.04393000       2.06445003      -0.00667000       0.53385548       0.15224895       0.63215512
H        1.66069007       1.36913002       0.30748001      -0.52406485      -0.05880145      -0.09815146
H        0.87512004       2.61108994       2.24924993      -0.21628415      -0.53327684       0.05778052
H       -0.59942001       1.60109997       2.29023003       0.36273111       0.34114257       0.05005898
O       -1.18904006       4.65334987       1.50273991       0.39185785       0.30122312      -1.30486841
H       -1.73975003       4.66227007       0.68733001       0.71314012       0.01611971       0.97174514
H       -0.29152000       4.91852998       1.19879997      -1.11168135      -0.31708559       0.32009295
27
Properties=species:S:1:pos:R:3:REF_forces:R:3 smiles="[H:19][c:9]1[c:10]([c:12]([c:14]([c:13]([c:11]1[H:21])[H:23])[N:16]([H:24])/[N:4]=[C:8]2/[C:7](=[N:3][C:6]3=[N:2][C:5](=[N:1][N:15]23)[H:18])[C:17]([H:25])([H:26])[H:27])[H:22])[H:20]" total_charge=0 REF_energy=-20521.56062355199 config_type=PubChem pbc="F F F"
N        2.76304700       0.85442295      -1.05072568       0.75974280       0.14250583      -0.56345876
N        4.96189501       0.52876172      -0.41509781      -0.65972118       0.42734947      -1.37303640
N        4.28685214      -0.25557933       1.85880007      -1.03570215       0.04889093       0.28281864
N        0.74852379       0.06905495       1.27112713       1.41997447       0.13686537      -0.31275646
C        4.04414131       0.92202281      -1.39800021       0.94856817       0.16892353      -0.39017585
C        4.15473082       0.20101651       0.55834812       1.21326069       0.16090748      -0.25120569
C        3.04874231      -0.33127246       2.28248550       0.43929766      -0.54727181       0.82621518
C        2.07713964       0.05205750       1.25663885      -3.13472336       0.04337630       0.10555999
C       -3.91815755       1.45846548      -0.44000743       0.41103608       0.16956960      -0.23705519
C       -3.50572441       0.89262336       0.75924326       1.38898349      -0.10797929      -0.56336592
C       -2.97397850       1.65514138      -1.45861754      -0.47294441      -0.20607785       0.19110379
C       -2.15562675       0.52337231       0.92019486       0.23015852      -0.24784448       1.11543847
C       -1.64914749       1.24745616      -1.27197192       0.53443437       0.47754610      -0.89835235
C       -1.17680845       0.70747452      -0.07189999      -2.21296990       0.28591853       0.66492453
N        2.88787153       0.39346769       0.20533856      -0.60913735      -0.13568800      -0.00527944
N        0.17347937       0.44665136       0.11800798       2.01119743       0.07947781      -0.31734509
C        2.69925096      -0.75114379       3.67159702      -1.18887646      -0.24103000      -0.17833210
H        4.35932924       1.27901073      -2.40710018      -0.37966825      -0.43606630       1.21274462
H       -4.93822715       1.78500285      -0.59875176       0.06637215      -0.08357251       0.11371224
H       -4.17086980       0.76115083       1.59005382      -0.23025444      -0.08234933       0.11604273
H       -3.34649847       2.13640931      -2.38807056       0.75853661      -0.52591092       0.66535913
H       -1.83333490       0.12125211       1.89672496      -0.23414402       0.23692289      -0.68226690
H       -0.93209551       1.40440478      -2.07960747      -0.19446997       0.00787821       0.15918689
H        0.84582122       0.73752155      -0.62102018      -0.95905799      -0.20786585       0.34145381
H        3.47976258      -0.44881306       4.32677772       0.66921130       0.25263597       0.48921515
H        1.75977304      -0.24967668       3.98980429       0.55564034      -0.53922067      -0.22158222
H        2.59789397      -1.85247085       3.78351309      -0.09629521       0.72299319      -0.29254021
49
Properties=species:S:1:pos:R:3:REF_forces:R:3 smiles="[H:30][c:12]1[c:13]([c:15]([c:21]([c:16]([c:14]1[H:32])[H:34])[C:11]2=[C:10]([S:6][C:9](=[N:5]2)[N:24]([H:39])[C:8](=[O:2])[C:26]([H:43])([H:44])[c:22]3[c:17]([c:19]([c:23]([c:20]([c:18]3[H:36])[H:38])[S:29](=[O:3])(=[O:4])[C:28]([H:48])([H:49])[C:27]([H:45])([H:46])[H:47])[H:37])[H:35])[C:7](=[O:1])[C:25]([H:40])([H:41])[H:42])[H:33])[H:31]" total_charge=0 REF_energy=-54967.48458915128 config_type=PubChem pbc="F F F"
O        5.10215618       1.73516514      -1.42247377       0.03327467      -0.58147724      -0.09402759
O        1.13458755       3.94551803       4.81851437       0.15345811      -1.28102241      -0.58071829
O       -1.88681934      -0.52944992      -1.80834339      -0.86541339       0.94265625       1.38661649
O       -1.37605665       1.75606205      -2.41538760      -1.65703887      -0.42801560       2.15998515
N        2.36976971       0.95096319       2.14371969       0.46221975       0.77967160      -0.68216042
S        4.13771202       2.64197971       1.20202418      -0.97114310      -0.10396889       0.16565152
C        4.67375376       0.77118959      -0.79404125       1.82763189       0.94635814      -1.59817422
C        1.31014051       2.95878365       4.09342648      -2.08022850       1.99863274       1.90935804
C        2.80576279       2.16791965       2.28039219       0.93261620      -0.40167053      -0.25835869
C        3.94978335       1.11045434       0.39975334      -1.37082182      -1.05600150       1.42166421
C        2.98073723       0.37632223       1.02671154      -0.06649757       0.07918215       0.89743378
C        0.97588613      -3.21741150      -0.03247998       0.00956247       0.46485538      -1.12674767
C        1.07644638      -2.16527650      -0.95401785       0.12033040       0.47987460       0.05365417
C        1.61757054      -3.14634917       1.18206980       0.21708739      -0.36150528       0.74005295
C        1.79347338      -1.01846204      -0.63044760      -0.00004492       0.29873155       0.02770949
C        2.32299818      -1.98667476       1.53080847      -0.10989119      -0.32681613      -0.10143660
C       -0.72387669       2.69706037       2.00017717       0.01342580      -0.81613450      -0.67780333
C       -0.85117528       0.35134970       2.41649153      -0.44015970       0.28648321      -1.34267503
C       -1.25384984       2.51977672       0.71797982      -0.49556719      -0.25771317      -0.37740039
C       -1.34335945       0.11151343       1.12796779      -0.46555907       2.18449575      -0.21023629
C        2.40887751      -0.91509316       0.63213201      -0.39124288      -0.57065860      -0.55156980
C       -0.46549443       1.60686709       2.84524920       0.07044681       1.04366977      -0.72222210
C       -1.56711910       1.23369428       0.26174103       0.81595930      -1.42627652       0.67282578
N        2.35611775       3.06420900       3.22488072       1.14747518       0.09101413      -0.82602578
C        5.04503252      -0.64441190      -1.25619040       0.91115190       0.01878806       0.67781925
C        0.27756711       1.79915240       4.15646221       1.14087082       0.03769462      -1.25783804
C       -4.49360654       1.36878647      -2.69062755       0.02951426      -0.71097885      -1.28214180
C       -3.83981416       1.29683801      -1.35608170      -0.48540564      -0.26637764       0.82187795
S       -2.09087107       0.87732856      -1.45109556       2.02280544       0.17005728      -1.94760270
H        0.42665300      -4.09584329      -0.31425843      -0.16774538      -0.21598175       0.03115886
H        0.58543021      -2.14007185      -1.92401955      -0.06116274      -0.46818199       0.32601734
H        1.55105593      -4.03510043       1.85418000       0.19151091       1.07728274      -0.46154080
H        1.82371237      -0.16659943      -1.35342429      -0.00255151      -0.84226732       0.84580128
H        2.80636790      -1.95504711       2.50348641      -0.07721313       0.25810457      -0.21764515
H       -0.42997298       3.68933322       2.25288250       0.10785986       0.49538302       0.42541619
H       -0.75894234      -0.44671658       3.08598067       0.33926898      -1.19783573       0.70875041
H       -1.45003447       3.38081577       0.06648310       0.29306657      -0.41031295       0.32951985
H       -1.62647460      -0.86233494       0.79415198       0.10409125      -0.44315508      -0.10064331
H        2.84524967       3.97456529       3.26575663      -0.69233807      -0.95484151       0.16344391
H        4.22653581      -1.09367738      -1.78430793      -0.36791289      -0.26198807      -0.18158310
H        5.31046965      -1.29116509      -0.39697108      -0.40330506       0.34559604      -0.38233173
H        5.94041492      -0.62709282      -1.92584179      -0.91660157       0.41692015       0.54233565
H       -0.44023476       1.97024765       4.94154646       0.22366834       0.38320789       0.42321007
H        0.85842460       0.90443011       4.34635069      -0.15484955      -0.31081220       0.13467367
H       -5.59259460       1.31606677      -2.61254332       0.57977906       0.18516979      -0.01567143
H       -4.14618776       0.53570081      -3.32618425      -0.33669890       0.33475484       0.16239111
H       -4.15995977       2.28960779      -3.14393971      -0.28000501       0.16647025      -0.47916581
H       -3.90508697       2.29509523      -0.93028281       0.26725539      -0.14453771       0.51746085
H       -4.38147351       0.56966583      -0.71867798       0.84094288       0.34816003      -0.05393938
17
Properties=species:S:1:pos:R:3:REF_forces:R:3 smiles="[H:12][C:8](=[O:4])[O:6][C:10]([H:14])([H:15])[C:11]([H:16])([H:17])[O:7][C:9](=[O:5])[H:13].[H:2][O:1][H:3]" total_charge=0 REF_energy=-14522.916472975876 config_type="DES370K Dimers" pbc="F F F"
O        0.54275000       3.06116009       0.97424996       0.49666065      -1.04219057       0.79579139
H        0.51931000       2.13088012       0.65443003       0.00719469       0.86227412       0.27836159
H        1.03372002       3.01836014       1.82593000      -0.56392120       0.03516726      -1.10259713
O        0.00000000       0.00000000       0.00000000      -1.59418042      -3.57823321       1.21566321
O       -3.56664991      -1.64060998       0.18831000      -1.38826612       0.90025638       3.11179974
O       -0.83299005      -1.38692999       1.66872990       0.44873810       0.72421225      -1.70772930
O       -3.71547985      -0.44450998       2.19456005       0.84539968       0.20807607      -0.82523056
C       -0.40235001      -1.12116003       0.39501998       1.44988389       2.69823179       0.38511354
C       -4.10587978      -1.37009001       1.26732004       1.28143332       0.08742943      -1.69395493
C       -1.22435999      -0.25104999       2.47555995      -0.90469548      -1.00438421       0.65108410
C       -2.53428983       0.37865999       1.94077993       1.58126783       0.23092452      -0.07950080
H       -0.35286999      -2.06731009      -0.17945000      -0.11821025       0.64789034       0.17226450
H       -5.02898979      -1.81668997       1.68694007       0.41122582      -0.05392904      -0.49185298
H       -1.43685996      -0.76073998       3.43498993       0.07290733       0.56588873      -0.36192846
H       -0.42589998       0.49330998       2.65951991      -0.42543047      -0.42798498      -0.62485296
H       -2.55111980       1.33635998       2.49573994      -1.00452354      -0.58868849      -0.29100295
H       -2.36801004       0.61214995       0.87154001      -0.59668184      -0.26690445       0.56370507
7
Properties=species:S:1:pos:R:3:REF_forces:R:3 smiles="[H:4][N:2]([H:5])[S:1][N:3]([H:6])[H:7]" total_charge=0 REF_energy=-13876.624653671715 config_type=PubChem pbc="F F F"
S        1.13274868      -0.42983083      -0.35371158      -0.78875940      -0.11996437       0.58969510
N       -0.30618934      -0.16023193       0.46089848     -13.23472385     -10.71803673      -1.86308119
N        0.95041837       0.90083255       0.65295302      14.29105788      11.16830745       2.06341093
H       -0.66870282       0.72359612       0.14545276      -1.01386918      -0.79889297      -0.24325755
H       -0.10356692      -0.02355395       1.44156905      -1.18656572      -1.40187507      -0.45007453
H        0.93397053       1.73477652       0.07047831       0.75642841       0.81886242       0.03066529
H        1.76556196       0.95865198       1.28660049       1.17235509       1.05489235      -0.12377852
48
Properties=species:S:1:pos:R:3:REF_forces:R:3 smiles="[H:27][c:6]1[c:10]([c:15]([c:11]([c:7]([c:13]1[c:12]2[c:4]([c:8]([c:14]([c:9]([c:5]2[H:26])[H:30])[C:20]([H:39])([H:40])[N:16]([C:18]([H:33])([H:34])[H:35])[C:19]([H:36])([H:37])[H:38])[H:29])[H:25])[H:28])[H:32])[C:21]([H:41])([H:42])[N:17]3[C:3](=[O:1])[O:2][C@:24]([C:23]3([H:46])[H:47])([H:48])[C:22]([H:43])([H:44])[H:45])[H:31]" total_charge=0 REF_energy=-28222.649293317198 config_type=PubChem pbc="F F F"
O        0.81823000      -4.64493034      -2.52467582       2.76551989       2.72199921      -1.95809220
O        2.99974372      -4.10592649      -2.98992774      -0.90945121       1.71045389      -1.19938732
C        1.66277804      -3.89264772      -3.08901641      -3.07032897      -2.14730924       1.05628800
C       -0.75868986       2.38187196       1.19416054       0.22896289       0.71921891       0.81400932
C        0.91421815       1.09771158       2.28046646       0.89102657      -0.32643888       0.87851699
C        0.41640322       0.97071942      -1.25157998      -0.38493772      -2.69532014       0.56869155
C       -0.20385973      -1.04493366       0.04434153       0.74405661       2.49913126      -0.69581158
C       -0.75217781       3.31323721       2.30242040       1.05564270      -2.27949957      -1.16987605
C        0.92656409       1.92295184       3.43723085      -1.11380423       1.40831326      -2.29924832
C        0.52506749       0.17500316      -2.40767333      -0.40087769       2.19427299      -2.73026374
C       -0.17144654      -1.68168018      -1.16596219       0.44386671      -0.34536579      -1.37379351
C        0.08258777       1.26210864       1.13548275      -0.34455143       1.65710314       2.34046716
C        0.09666737       0.38387578      -0.02853248       0.10544913      -1.40056343       0.02669391
C        0.08192547       3.14933207       3.39552905       1.87407712      -2.74011902       0.75898781
C        0.21139949      -1.17075989      -2.48913143      -0.67079012       0.55622584       4.71822927
N       -1.03296659       3.74076893       5.51322605       0.48992896       0.69664408       1.20114512
N        1.33858575      -2.81155536      -3.94747207       3.82803726       1.05036509      -0.14543951
C       -2.09895632       2.83078291       5.09541609      -0.31755950       0.15512636       0.50441131
C       -1.28476093       4.82125570       6.54192688       0.89403112      -2.69072865       0.08391401
C        0.06096181       4.09377362       4.58546688      -3.40409652      -0.36107365      -1.82063018
C        0.17720433      -2.01460812      -3.69642684      -1.02916081      -0.15490846      -0.56369487
C        3.81758191      -2.11143157      -1.99949000       0.23902242       0.42133177       0.16029564
C        2.64628269      -1.95990560      -4.23805664      -1.28429298      -2.81188687       1.83067562
C        3.60478379      -2.81040857      -3.35233185       1.63600818       0.47678590       0.08365427
H       -1.41932235       2.59499481       0.34997568       0.13251818      -0.12372092       0.35259189
H        1.69745543       0.30993537       2.26823761      -0.86190366       0.33901229      -0.08639630
H        0.55627358       2.00981929      -1.27798984       0.34066118       1.10137964      -0.19122972
H       -0.47301314      -1.62118647       0.95617237       0.22747136       0.93450493      -0.74974722
H       -1.44932077       4.09912326       2.25900747      -0.56090644       1.02063129       0.03749776
H        1.67804219       1.68016603       4.21625044      -0.88918166       0.51658477      -0.45145157
H        0.67112893       0.83934428      -3.36359307       0.04107718      -1.71083610       1.54361970
H       -0.48193762      -2.67639635      -1.06168804      -0.20976104      -1.54620969      -0.58526866
H       -2.62379883       2.45118191       6.01488306       0.46126470       0.39709844      -0.86356745
H       -1.64576576       1.97275426       4.57711174      -0.25851485       0.30218802       0.37828796
H       -2.87977717       3.23218634       4.38917925       0.58040111       0.00155115       0.59899595
H       -1.71642492       4.30125453       7.41764309       0.54670327       0.27714319      -0.10257924
H       -0.32294027       5.31582024       6.79950430      -0.64264579      -0.54667675      -0.10338426
H       -1.99676082       5.57183792       6.34102966      -0.88845544       1.04564364      -1.08027682
H        0.98357727       4.21614124       5.06647160       1.25171304      -0.04810229       0.75418698
H       -0.25937609       5.01983358       4.12334444       0.50471024       0.82726068      -0.05444339
H        0.04685389      -1.25574086      -4.47781274      -0.05536437      -0.86691873      -0.51960314
H       -0.60891364      -2.78112052      -3.69493625      -0.37288747       0.82911704       0.17165461
H        4.18389370      -1.04916558      -2.03941915      -0.32244548      -1.11251861      -0.24071176
H        2.85645415      -2.12722347      -1.48045085      -0.07173864       0.32233930      -0.15041468
H        4.46271159      -2.69117353      -1.34117935       0.24133389       0.02211384      -0.25139867
H        2.94317963      -1.90608237      -5.28127811      -0.44605275      -0.26222160      -0.03241549
H        2.57296087      -0.96943591      -3.79236267      -0.25667761      -0.10820966      -0.19537000
H        4.54719879      -3.03096793      -3.91298625      -0.75980812       0.07353042       0.75110575
44
Properties=species:S:1:pos:R:3:REF_forces:R:3 smiles="[H:29][c:16]1[c:18]2[c:15]([n:4][c:11]([n:5][c:17]2[c:14]([c:12]([c:13]1[C:10]3=[C:9]([N:3]=[C:8]([O:6]3)[H:26])[H:27])[O:7][C:20]([H:32])([H:33])[H:34])[H:28])[C:23]([H:41])([C:24]([H:42])([H:43])[C:25]([H:44])([C:21]([H:35])([H:36])[H:37])[C:22]([H:38])([H:39])[H:40])[N:19]([H:30])[H:31])[C:2]#[N:1]" total_charge=0 REF_energy=-30537.7794853096 config_type=PubChem pbc="F F F"
N       -2.95205400       2.36362829      -1.81220577      -0.29170662       0.24970436       0.01855216
C       -2.06607316       1.95655562      -1.21160755       0.03428843      -0.18482443      -0.23519481
N       -4.81425092       1.14763292       5.55456593      -1.61078592       1.09410712      -0.35536024
N        0.18650921       1.26080277      -1.26247642      -1.19953201      -0.86392615       0.71882836
N        1.20961370       0.11975147       0.60253248       0.42301707       0.21439557      -3.35726907
O       -4.42296455       1.47758307       3.32477118      -0.58012486      -0.79068233       2.45449151
O       -1.04169653      -0.62002990       4.75947525      -0.35665594      -0.06951023      -0.45159379
C       -5.23752210       1.59930804       4.42162277       0.94345499      -0.26849891       0.12876551
C       -3.60637376       0.67496205       5.28231241       3.02969784      -1.91636260      -1.56792646
C       -3.39636276       0.80045381       3.89323952       3.00235467      -0.43773695       0.68733865
C        1.20187428       0.55357372      -0.70671401      -0.09800456      -0.28165540       2.80011956
C       -1.07210455      -0.11096881       3.47069885       3.19763511      -1.40590804       1.16403928
C       -2.20135353       0.56211707       3.02624967      -2.00515606       1.18344824      -2.50516943
C        0.04019137      -0.17811386       2.65634682      -0.58170774       0.09883562      -1.88688177
C       -0.96009717       1.31393173      -0.55819724       1.44741046       0.40213492       0.05017190
C       -2.20477627       0.98803510       1.65328469      -0.51261131      -0.37687515       1.62644759
C        0.06145673       0.25109317       1.27069362       0.45423257      -0.06416208       2.71031672
C       -1.06910715       0.84743949       0.77633623      -2.16630431       0.63774321      -0.39992243
N        3.05390479      -1.01446436      -1.39631603       0.57129827      -0.19657425       0.70594513
C       -0.09939245      -1.66441653       5.18777944       0.90676602       1.63497671      -3.42424740
C        5.24728348       0.37569953      -3.02915237       1.03380411       3.21130447       0.21125860
C        3.20751430       1.52273651      -4.22927091       0.88881745      -0.43361872       1.55032179
C        2.37669017       0.24967318      -1.63035080      -1.23988497      -1.33387347      -0.03800611
C        3.35478284       1.39942821      -1.71774337      -1.12059522      -1.33209566       0.22104726
C        4.13172914       1.39627369      -2.98238561       0.60891382       2.68427113      -0.46173031
H       -6.05019424       2.18121197       4.31446077      -2.77477968       1.54507172      -0.65915254
H       -2.93787859       0.20531421       6.06371071      -0.97726188       0.70421351      -1.42611532
H        0.98168369      -0.63016245       2.78468635       0.71426691      -0.71173369       1.37670480
H       -3.15175483       1.42673709       1.31022908       0.73582943      -0.09310643      -0.07423961
H        3.68636229      -0.97618816      -0.60590289       0.00813527       0.26793247      -0.01042824
H        2.42075827      -1.75981138      -1.15454076      -0.33668906      -0.01494110      -0.17960635
H       -0.21912483      -1.68043706       6.22587015      -0.09557120      -0.45063822       1.32596445
H       -0.27348242      -2.59070633       4.62492611      -0.37058655       0.12250564       0.56242381
H        0.93960016      -1.35822544       4.87990906      -0.89843179      -0.16587036       0.72018007
H        5.96942427       0.72082802      -3.78480766      -0.14560673      -0.61842145       0.21796818
H        5.72430136       0.35049978      -2.05086181       0.23682708       0.06591493      -0.06293261
H        4.85845425      -0.53378842      -3.18611977      -1.01647312      -3.47755112      -0.93956787
H        2.70569350       0.56384457      -4.35869882      -0.23405575       0.37726979      -0.45040112
H        3.87380649       1.74836471      -5.01805255       0.42028602      -0.12240124      -1.28652626
H        2.54909637       2.38907745      -4.13850734      -0.24727544      -0.44382451       0.16899130
H        1.85143735       0.03128233      -2.56854031       0.17396157       0.78503137      -0.04840573
H        3.99576070       1.27317103      -0.86858247       0.46893956       0.31786882       0.62863237
H        2.75783159       2.27566304      -1.60862944      -0.09733691       0.93680011       0.01583857
H        4.67459967       2.37443616      -2.92023871      -0.34440983      -0.48095940      -0.24266000
20
Properties=species:S:1:pos:R:3:REF_forces:R:3 smiles="[H:6][C:1]([H:7])([H:8])[C:3]([H:12])([H:13])[C:5]([H:16])([H:17])[C:4]([H:14])([H:15])[C:2]([H:9])([H:10])[H:11].[H:19][O:18][H:20]" total_charge=0 REF_energy=-7465.544512933537 config_type="DES370K Dimers" pbc="F F F"
C        0.00000000       0.00000000       0.00000000      -0.47091615       1.39037255      -0.46482255
C        3.67947006      -1.89441991       1.84282005      -0.76455782      -0.24092575       0.44796069
C        1.48334003      -0.12978999       0.22602999       1.01527044      -1.08930669      -0.31026861
C        3.41989994      -1.95402002       0.34593999      -0.17308367       0.92777597      -0.58043727
C        1.92094994      -1.58134997      -0.08172000       1.21930815      -0.81097870       1.14490147
H       -0.28292000      -0.19702001      -1.04772997       0.07903863       0.05392715       0.43900069
H       -0.16900000       1.06854999       0.21507001      -0.71411972      -0.38676043      -0.23797781
H       -0.65121001      -0.59875000       0.65881002       0.59034672       0.13851454      -0.17883619
H        4.65059995      -2.32363987       2.14162016      -0.47582196       0.21642947      -0.24496246
H        2.87405992      -2.50872993       2.27935004       0.49056580       0.25802885       0.41635664
H        3.60489988      -0.87334001       2.25321984       0.00774364      -0.45109410      -0.18081899
H        2.09745001       0.49284997      -0.45267001      -0.63808007       0.16841429       0.37071811
H        1.67179001       0.21431001       1.26118004       0.30887692      -0.54677658      -0.47706733
H        3.74577999      -2.95691991       0.00911000      -0.52104416       0.53544415      -0.18249777
H        4.09606027      -1.20817995      -0.11447001      -0.28951785      -0.44527540      -0.20741088
H        1.21650004      -2.22540999       0.47897997       0.42662348      -0.04663500      -0.33040567
H        1.81419992      -1.82214999      -1.15691996      -0.11586753       0.34976492       0.53581289
O        5.56027984      -3.30002999       4.53738022       1.01353478       0.43867625      -0.84380058
H        6.01444006      -3.80408000       3.82468986      -0.52698789       0.65194134       0.87016524
H        5.95480966      -2.39961004       4.49442005      -0.46140184      -1.11202409       0.01445870
31
Properties=species:S:1:pos:R:3:REF_forces:R:3 smiles="[H:25][c:10]1[c:9]([c:13]([c:17]([c:18]([c:14]1[H:29])/[C:7](=[C:6]([C:2]#[N:1])/[C:5]2=[N:3][c:16]3[c:12]([c:8]([c:11]([c:15]([c:19]3[N:20]2[H:31])[H:30])[H:26])[H:23])[H:27])/[H:22])[O:4][H:21])[H:28])[H:24]" total_charge=0 REF_energy=-23303.107978668962 config_type=PubChem pbc="F F F"
N       -1.68635843       2.73946764      -0.67937789       2.93261898      -2.39301837       0.88471179
C       -0.83415316       2.00600745      -0.30405281      -3.49735945       2.89788985      -0.84775548
N        1.00440349      -1.18359039      -0.02370081      -1.53448707       0.00774034      -0.46768315
O        3.14296391       2.32003166       2.74172236      -0.34581079      -0.14114196      -0.05360512
C        0.11613127      -0.23563872      -0.34502689       1.97438219      -2.84815522      -0.79797204
C        0.05309775       1.08474030       0.30720667       0.79680251       0.22137654       1.53393938
C        0.75029977       1.40351655       1.46717366       0.14812158      -1.16944604      -1.13100970
C        1.03958424      -4.42950771      -1.98483107       0.06632903       0.99060424       0.90650916
C        0.87580826       4.96506979       3.82695820      -0.84474379      -0.69093594      -0.56575252
C       -0.33119843       4.61077549       3.18588354       1.17621506      -1.20536998       0.10361366
C        0.01370921      -4.10352657      -2.89966128       0.33287353       1.75718787       1.64213370
C        1.36883970      -3.51042220      -0.95631967       0.46735960      -1.15773455      -0.88475759
C        2.05138924       4.20527937       3.65728142      -1.79779744       0.53971777       0.00454050
C       -0.36714403       3.39080217       2.46357908      -0.77238424       2.14298253       0.32057247
C       -0.64728222      -2.85635183      -2.79717586      -0.33719360      -0.62467381      -0.99771588
C        0.72424315      -2.27289770      -0.90419302       1.80963609       0.37857556       1.47521649
C        1.98132565       3.05472018       2.87733318       1.10552921       0.18666795       0.81283324
C        0.77561318       2.63097574       2.28393449       0.06212961      -0.50249043      -0.87220841
C       -0.24890415      -1.93524573      -1.82268904       0.21047773      -1.07635392       0.14693049
N       -0.61580203      -0.68570302      -1.45261524      -1.64817224       2.76831463      -0.08739213
H        3.81017472       2.61002399       3.39075543      -0.70117722      -0.07791797      -0.54848585
H        1.44860574       0.62955666       1.82400050      -0.47337911       0.25616907      -0.39276833
H        1.60355117      -5.37236927      -2.03980443      -0.50540080       0.53155116      -0.06233103
H        0.76124560       5.79360010       4.50348975       0.73645186       0.32663760       0.03856494
H       -1.20490954       5.24777796       3.30788615       0.16846565      -0.38503474      -0.05451695
H       -0.25286601      -4.80700967      -3.63556192      -0.40932974      -0.51625216      -0.81943620
H        2.18658425      -3.78040883      -0.27817450      -0.50810967       0.36794092      -0.15175587
H        2.96620943       4.50727798       4.14471175       0.07453231      -0.10098684      -0.02987679
H       -1.32904194       3.13328244       2.01871779       0.52578619      -0.27838139       0.03800730
H       -1.45753190      -2.62710831      -3.50800274       0.51782167      -0.06411463       0.45091295
H       -1.29409454      -0.12863336      -1.96495316       0.26958565      -0.14118708       0.40717548
38
Properties=species:S:1:pos:R:3:REF_forces:R:3 smiles="[H:21][C:8]1=[C:10]([C:17]2([C:20]3([C:19]([C:11](=[C:9]([C:15]([C:18]3([C:7]1=[O:2])[H:37])([H:32])[H:33])[H:22])[H:23])([C:16]([C:6](=[O:1])[O:5]2)([H:34])[H:35])[H:38])[C:14]([H:30])([H:31])[O:4][C:13]([H:27])([H:28])[H:29])[H:36])[O:3][C:12]([H:24])([H:25])[H:26]" total_charge=0 REF_energy=-26097.346579885278 config_type=PubChem pbc="F F F"
O        4.01153614      -0.13165925      -1.06555317      -3.60014796      -0.32235872       0.47393987
O       -1.99501965       0.75357657       3.24675371       1.44907184       0.33648237      -1.60979638
O        0.35350207      -2.79006217       1.30623808      -1.08504303       1.45109645      -0.99263373
O       -0.76093969       2.28172054      -1.05886910      -0.18740414      -0.43491818      -0.79454745
O        1.88999667      -0.76132915      -0.46812914      -0.13895875      -0.64132005       0.49327026
C        2.82673814       0.17020660      -0.82391284       4.45740248       0.16600569      -0.45254529
C       -1.13022110       0.48453538       2.38843216      -1.75051569      -0.13627271       2.17004455
C       -1.04510532      -0.92878697       2.02632024       2.83997765      -2.10310365      -2.87515181
C        2.29652395       2.07727720       2.85238244       0.19775518       0.11834097      -4.79154806
C        0.06011444      -1.42640874       1.21868284      -2.88406322       0.19254019       3.28995909
C        2.65948870       2.16954245       1.50045063       1.68763509       0.44698864       4.59062983
C       -0.40760700      -3.51352737       0.31774079       0.96494561       0.41034999      -1.25826760
C       -1.42746542       2.20581188      -2.38367985       1.55827465       0.81810320       1.41191752
C       -0.45232341       0.95898482      -0.57298444       1.53323392       0.58527738      -1.41003010
C        0.92512329       1.61985292       3.15321304      -0.72371415      -0.65702823      -0.20047222
C        2.47087981       1.63837626      -0.89000211       0.24385514      -0.36957171      -1.26369455
C        1.13537427      -0.48424480       0.73910002       0.28585833       2.16426485       0.55007739
C       -0.05300156       1.46706416       1.96415379      -0.36521989      -0.58234697      -0.46169308
C        1.69038775       1.97455778       0.39150639       1.15152624       2.04586489      -2.45903455
C        0.62385041       0.98637020       0.64333849      -2.94016754      -0.52832289      -0.48275424
H       -1.82519934      -1.61305092       2.48338403       1.45022935       0.85039183      -0.61237084
H        2.91863920       2.42977025       3.64664557       0.47801900      -0.23784907       0.21382227
H        3.76491549       2.44838657       1.33432534      -2.07148255      -0.30556035      -0.25852996
H       -0.22158549      -4.56023261       0.49474323      -0.77166723      -0.26997730       0.47213584
H       -1.42827521      -3.13011429       0.14617386       0.22148154      -0.64078706       0.90876250
H        0.06593909      -3.35752938      -0.65136490       0.20191162       0.19834821      -0.18958979
H       -1.33231018       3.17199971      -2.94315336      -0.14744842      -0.83330230       0.91710744
H       -2.42162273       1.92134192      -2.17140243      -1.32535617      -0.02537178      -0.20985305
H       -0.96350787       1.41835191      -2.95292518       0.28714372      -0.24806699      -0.38464403
H       -1.32608185       0.40038658      -0.29393546      -0.59037667       0.06002593       0.42849860
H       -0.06941859       0.40806378      -1.50565670       0.05572521       0.40191114       1.65007204
H        0.49490923       2.27232446       3.89367296      -0.45945747      -0.05971324       0.33947934
H        0.88838490       0.60194761       3.50558497       0.73581704      -0.28744345       1.13253638
H        3.39594414       2.24089255      -1.07130823      -0.57348009      -0.76849991       0.91657333
H        2.01501014       1.79459681      -1.89867065      -0.74760281      -0.11696078       1.10139416
H        1.79679408      -0.47398303       1.60772946       0.67341594      -0.25264744      -0.26567827
H       -0.54169819       2.41521551       1.84375503      -0.20764028       0.41769711      -0.61429653
H        1.22606446       2.96850779       0.15595471       0.09511901      -0.84329503       0.52203089
43
Properties=species:S:1:pos:R:3:REF_forces:R:3 smiles="[H:35][c:19]1[c:16]([c:17]([c:21]([c:23]2[c:22]1[c:18]([n:7][c:13]([c:20]2[H:36])[H:32])[O:8][C:26]([H:39])([H:40])[C:10]3=[N:4][C:9](=[N:3][N:24]3[C:27]([H:41])([H:42])[H:43])[H:29])[H:37])[S:28](=[O:1])(=[O:2])[N:25]([H:38])[c:14]4[c:15]([c:12]([n:5][c:11]([n:6]4)[H:30])[H:31])[H:33])[H:34]" total_charge=0 REF_energy=-45300.98613783858 config_type=PubChem pbc="F F F"
O        0.52333201      -3.72283504      -1.00639842      -0.41557087       1.23726303       0.73934262
O       -0.97190950      -2.73831174      -2.69103739       1.08451817       0.89698891       2.75500766
N        3.20908310       3.81892969       4.10465981      -0.32984567      -0.93727347       0.74533404
N        2.18685557       3.86091354       2.07238462       1.40953917       0.93298573      -0.19661341
N        4.60042431      -2.91035555      -3.54247234       0.65078244       0.16077985      -0.76276693
N        3.28538205      -1.84898326      -2.00540564       0.99580256       0.94510197       2.98202371
N       -3.04607389       2.50557603       2.00754752       1.90217146       0.13547611      -0.45635938
O       -0.98866175       2.39320924       3.01005199       0.84779531      -1.30055010       2.69376415
C        3.35665610       3.97220018       2.84235861      -0.60926563       0.22679550      -3.17370297
C        1.28947952       3.68922498       2.97565677      -1.77520233      -2.52830254       2.11336950
C        4.41923620      -2.39579675      -2.29729149       1.31903286      -1.03508874      -1.69807879
C        3.56034567      -2.90124175      -4.41660211       0.05357099      -0.63489951       1.47586081
C       -3.79594467       2.11995258       0.95423668      -1.46987064       0.51605225       0.83156899
C        2.21269741      -1.98768804      -2.73885987       2.15896310      -1.30615542      -0.75385027
C        2.29075100      -2.60124228      -3.94939801      -1.88741717      -0.84369750      -1.64514180
C        0.14070591      -0.88455389       0.71204603      -0.14627545      -0.35397428      -0.28928368
C       -0.72439263      -1.33961627      -0.33008704      -1.18015636       1.83808923      -0.53951137
C       -1.82901046       1.98281910       2.05569484      -1.50294133       0.69758811       0.25273605
C       -0.19810293       0.21422237       1.45345607       1.20229175       0.32911589       1.18292568
C       -3.50740526       1.10306825       0.13218492       0.20104898      -0.38937099      -0.68038181
C       -1.89554975      -0.60493038      -0.61636302       0.75154490      -1.34498598       0.74001362
C       -1.37716506       0.94568451       1.23804595      -0.75473413      -1.69935093      -0.79567271
C       -2.29025147       0.45563694       0.28371059       1.15720607      -0.83948049      -1.34443314
N        1.89205601       3.52276947       4.19003536      -0.75792768       1.25867880       0.41364899
N        1.13966044      -1.49243138      -2.12007758      -3.15300795       1.76189878       2.19822448
C       -0.23671416       3.53906037       2.77502396      -0.37104271       2.80235008      -1.59660683
C        1.29996695       3.14606287       5.44121458      -1.09358838       0.93507818       1.43153423
S       -0.07216058      -2.51201389      -1.52768634      -1.06449675      -1.47312050      -3.82900487
H        4.24834134       4.14806940       2.27598812       0.51398268       0.15825802       0.51692793
H        5.28057673      -2.47059462      -1.49588535      -1.88777719       0.26881120      -1.95555938
H        3.59977510      -3.24313543      -5.47064254       0.85325093       0.09056731       0.96416819
H       -4.75256774       2.61208918       0.83660819       0.03326180       0.16150612       0.19957145
H        1.35118820      -2.92399833      -4.47448775       1.19838274       0.79638683       0.27187041
H        1.07783659      -1.41943095       0.84018534      -0.19162855       0.12183428       0.37726669
H        0.39459511       0.56845787       2.32448795      -0.10356859      -0.52666368      -1.01844880
H       -4.17209385       0.77767382      -0.63493738      -0.42102030       0.02590816      -0.34722452
H       -2.55578992      -0.88283668      -1.45551155       0.55152641       0.12504408       0.57033264
H        1.50576391      -0.98816321      -1.30682454      -0.19606655      -0.02477508      -0.38228730
H       -0.80470822       4.43111708       3.16884424       0.88245035      -0.84486894       0.18442583
H       -0.37744049       3.64193251       1.71957006       0.62660123       0.82146055      -0.89408322
H        0.28410535       3.66669275       5.62278463       1.55952556      -1.13725824      -0.57081515
H        1.93839016       3.43946745       6.28828051      -0.05117832       0.21536178      -0.63146317
H        1.26335790       2.06794919       5.50953152      -0.59124862      -0.22477516      -0.07051267
8
Properties=species:S:1:pos:R:3:REF_forces:R:3 smiles="[H:2][N:1]([H:3])[H:4].[H:6][N:5]([H:7])[H:8]" total_charge=0 REF_energy=-3078.610189950057 config_type="DES370K Dimers" pbc="F F F"
N        3.43764019      -4.22199011       2.65998006      -0.18485027       3.18304063      -0.60397774
H        3.76347995      -4.10220003       3.62439990      -0.18600725      -0.07199425      -0.53551097
H        3.40050006      -3.28781008       2.23979998      -0.20852826      -0.26415170       0.37880701
H        4.16586018      -4.74391985       2.16208005      -1.50062191       2.35101174      -0.21819799
N        4.33598995      -6.30909967       2.84760999       0.83718457      -2.69338767      -0.55449131
H        3.38878989      -5.99124002       2.61870002       0.62927314      -0.86744985       0.37291478
H        4.52787971      -7.12400960       2.25623989       0.11140776       0.20332224       0.52694063
H        4.97883987      -5.56781005       2.55115986       0.50187002      -1.84045142       0.63313291
15
Properties=species:S:1:pos:R:3:REF_forces:R:3 smiles="[H:9][c:3]1[c:4]([c:6]([c:8]([c:7]([c:5]1[H:11])[Cl:1])[Cl:2])[H:12])[H:10].[H:14][O:13][H:15]" total_charge=0 REF_energy=-33421.0680654337 config_type="DES370K Dimers" pbc="F F F"
Cl       0.00000000       0.00000000       0.00000000      -0.42585135       0.45298704       0.10923446
Cl       0.96859998       2.33794999       1.87989998      -0.43927113       0.33217599       0.03113193
C       -3.19313001       2.44736004      -0.13849000       0.77543637       1.47164924       1.29592011
C       -2.73835992       3.55107021       0.69813001      -0.26165770      -1.71667961      -0.88145609
C       -2.27253008       1.43529999      -0.41391000      -0.13927002      -0.15860520       1.18212504
C       -1.46578002       3.51631999       1.25857997      -0.39654440       1.01395113       0.50586150
C       -1.04097998       1.38646007       0.29604000       0.18730772       0.30151701      -0.51595039
C       -0.59479999       2.43277001       1.14315999      -0.91409875      -0.89583025      -1.34255731
H       -4.23915004       2.37670994      -0.46476000       0.70518340       0.20810678      -0.11545971
H       -3.31914997       4.43900013       0.98073995      -0.09825320      -0.69034611      -0.55283219
H       -2.57333016       0.58099001      -1.03463006       0.35661902       0.48452070       0.33198757
H       -1.26122999       4.43471002       1.82455003       0.60879315      -0.79012995      -0.03402445
O       -6.55510997       3.05103016       1.72736001       1.25947066       0.09851906       0.57108894
H       -5.97106981       3.84039020       1.79114997      -0.68456431      -1.00620682      -0.02488327
H       -6.06756973       2.34246993       2.20537996      -0.53887786       0.89722322      -0.56125723
39
Properties=species:S:1:pos:R:3:REF_forces:R:3 smiles="[H:18][C:4]1=[C:5]([C@:16]([C@:17]([O:2][C:3]1=[O:1])([H:39])/[C:9](=[C:8]([H:21])/[C:6](=[C:7]([H:20])[C:14]([H:34])([C:11]([H:26])([H:27])[H:28])[C:12]([H:29])([H:30])[H:31])[C:13]([H:32])([H:33])[C:10]([H:23])([H:24])[H:25])/[H:22])([H:38])[C:15]([H:35])([H:36])[H:37])[H:19]" total_charge=0 REF_energy=-20019.978147393427 config_type=PubChem pbc="F F F"
O        1.80923476      -3.03820393       0.87848040      -0.28219803       0.76400214      -1.63305783
O        2.50087371      -1.16516874      -0.26838592       0.34485997      -0.95175817       0.09269440
C        2.36075499      -1.96025083       0.84824237       0.33565970      -0.74001126       0.65199700
C        2.98770478      -1.56498310       2.11130216       2.30217419       3.39629158      -0.47210021
C        3.84587171      -0.48077152       2.13513305      -2.25863745      -1.81799266      -0.52356913
C       -0.70924924       1.43919434       0.37212293      -3.02727285       0.08697504      -0.87264595
C       -2.00497911       1.02710148       0.05447986       2.76657058      -0.32767210      -0.33028700
C        0.50172235       0.83281761      -0.23455772       2.40762958       0.29417949       1.38701905
C        1.78794994       1.03598365       0.24613177      -2.77386197       0.27229083      -0.01671508
C       -0.44737867       2.10407963       2.82454564       0.33080456       0.10330288      -0.25274723
C       -2.63067863       0.50566701      -2.31790183      -0.33326803      -0.68723193      -0.27821017
C       -3.58219621      -0.86944816      -0.35003410       0.25927658       0.00749717      -0.63898486
C       -0.64861200       2.59731414       1.37063279       0.93716197      -0.33140649       0.40184724
C       -2.38030074      -0.08722792      -0.92955599      -0.09398646       0.31374603       0.92041552
C        4.70125343       1.73997750       1.17466481      -0.32325963      -0.77060699       0.00125014
C        4.17180826       0.30039374       0.83992898       0.20840043       0.15566258       1.29077652
C        3.00180699       0.19932269      -0.15064207      -1.55711149       0.69837381       1.50141684
H        2.78837039      -2.18662832       2.96741059      -0.15575022       0.11777452       0.01782927
H        4.16641285      -0.18236671       3.12473299       0.64425536       0.25519167      -0.26921828
H       -2.84678504       1.50122830       0.54747082       0.12263792       0.15850654      -0.00412365
H        0.42819046       0.09440252      -1.02145145      -0.48086681      -0.04999915       0.09953860
H        1.84893193       1.79917814       1.02387311       0.47418487      -0.31441178      -0.13748552
H        0.32448777       1.30885549       2.83483936      -0.58264333       0.36299064       0.21817076
H       -0.10127989       2.93818261       3.45593645      -0.16958331      -0.36734114      -0.12602964
H       -1.40484855       1.73988440       3.21572544       0.42517616      -0.13812259      -0.00229509
H       -2.90583608      -0.31572924      -3.02974174       0.06018757       0.78751902       0.53224042
H       -3.44243071       1.26215198      -2.27542398       0.58733722      -0.40971128      -0.20235209
H       -1.68764684       0.93710460      -2.66593430      -0.36618531       0.20988696      -0.08559816
H       -4.50246666      -0.28148774      -0.39731715       0.08487060      -0.01692633      -0.06504170
H       -3.72926757      -1.80484388      -0.91680763      -0.03810957       0.38497327       0.33174540
H       -3.39015481      -1.09388063       0.69498261      -0.02313239      -0.21426992       0.02969736
H        0.18195754       3.27035572       1.13310149      -0.09260600      -0.12028339      -0.15103704
H       -1.54793522       3.21439721       1.35112472       0.01959592      -0.24884279      -0.31342207
H       -1.54996154      -0.79189668      -1.00367401      -0.01787675       0.10302893       0.02159400
H        5.73305943       1.67122891       1.61385562      -1.16111081       0.11273452      -0.31186553
H        4.74051191       2.33874085       0.26727890       0.13737174       0.03351105      -0.01450412
H        3.99490716       2.22896125       1.85897019       0.47415005      -0.04919786      -0.06640486
H        5.00562956      -0.20195732       0.37859220       0.31680180      -0.40722238      -0.23068362
H        3.26847984       0.57623193      -1.12422058       0.49543783      -0.65858921      -0.50237654
48
Properties=species:S:1:pos:R:3:REF_forces:R:3 smiles="[H:30][c:10]1[c:14]([c:20]([c:15]([c:11]([c:18]1[C:7](=[O:1])[N:24]([H:42])[c:19]2[c:12]([c:16]([c:21]([c:17]([c:13]2[H:33])[H:37])[S:29](=[O:2])(=[O:3])[F:4])[H:36])[H:32])[H:31])[H:35])[N:25]3[C:9](=[N:6][C:8](=[N:5][C:28]3([C:26]([H:43])([H:44])[H:45])[C:27]([H:46])([H:47])[H:48])[N:22]([H:38])[H:39])[N:23]([H:40])[H:41])[H:34]" total_charge=0 REF_energy=-47633.35800365886 config_type=PubChem pbc="F F F"
O        0.06275036       0.39073782      -2.84241436       0.51407848       0.18943635      -0.12287519
O       -5.76032493      -4.16476342      -4.76989458       1.80330771       2.10469035      -0.98260419
O       -3.78531835      -4.71309039      -6.13673684      -1.24512300       3.74084678       1.83068390
F       -4.77234695      -2.44715903      -6.31785152      -0.12810522      -0.12903427       0.20918758
N        2.55740573       2.78184082       5.19378330       0.58755684      -0.25775247      -1.34746060
N        4.56114580       1.85295942       4.36341550       1.44345240      -0.17128422       0.50962639
C       -0.06894515       0.06554707      -1.67936513      -2.15991121      -0.85000583      -2.83851450
C        3.78243734       2.36574902       5.32093002      -2.95362617       0.52084836      -1.01059637
C        4.08891012       1.65030136       3.17975881      -1.30920254       1.40754129       2.13959300
C        1.21640440      -0.37739048       0.34003814      -0.40193073       2.15938746       0.39804586
C        0.97633060       1.92250838      -0.48289249       1.48951341       0.31084752       1.18830607
C       -1.28197656      -2.22294829      -3.40589783      -2.87445349       0.46069271       0.99682113
C       -3.17301962      -1.78499005      -1.95538066      -2.16537100       0.36608008      -0.24232956
C        1.97200706       0.05162998       1.46373453      -1.17196884      -1.40458974      -0.75392646
C        1.75545992       2.32997431       0.64296721      -0.48395445      -1.82655347      -0.30168783
C       -2.14891813      -2.80058048      -4.31479881       0.28909828       0.34899418      -0.17417613
C       -4.02156112      -2.43668888      -2.87587664      -2.42854039      -0.48718793      -0.21083286
C        0.67232383       0.56834700      -0.60052905       2.72105683      -0.12947766       3.34070271
C       -1.83104513      -1.61960480      -2.23830840       1.33061877       0.36920816       0.26605271
C        2.18671896       1.39778765       1.67045607      -0.97722163       1.86842127      -1.14430857
C       -3.51786420      -2.91441223      -4.09943244       0.35036180       0.41721712       0.77531578
N        4.23377492       2.49049558       6.56239940      -2.40068525       2.04967899       2.01565228
N        5.05496218       1.33024981       2.32235553      -3.57065038      -1.48281468      -5.06109562
N       -1.04096077      -0.83122394      -1.32085905      -1.37912748      -1.39018409       1.31497477
N        2.71622851       1.88611331       2.90166142       1.82237790      -1.76752842      -0.58170734
C        2.22547128       4.25662949       3.28491928       1.94167152      -0.68237708       0.54866463
C        0.54336331       2.72994306       4.10326984      -1.35508602      -0.22232013       1.44568475
C        2.00612082       2.80998328       3.84182169       1.36828182       3.29236246       0.67564504
S       -4.51577518      -3.66043851      -5.35924432      -0.33275430      -5.51247884      -0.15481713
H        0.87582635      -1.39570615       0.32243583       0.27341173      -0.28729381      -0.34066693
H        0.69545925       2.64159204      -1.27254603       0.08592768      -0.54988913       0.67452534
H       -0.31177816      -2.18724010      -3.75012395       2.05257238       0.52188513       0.09937842
H       -3.72312496      -1.24149916      -1.13295684       1.18379165      -0.81558580      -0.74725715
H        2.21447720      -0.74156938       2.19243993       0.12566329       0.88553134      -0.28095629
H        2.05429449       3.34850218       0.70498579       0.01606029       0.53909464       0.30057951
H       -1.68594906      -3.04051993      -5.25045392      -0.22489400      -0.59786829      -0.36743913
H       -5.19419334      -2.55255268      -2.68785856       2.91976471       0.36525002      -0.29208423
H        3.75608899       3.34152247       6.96264745       1.11625410      -1.76892494      -0.09376394
H        5.16294481       2.37588360       6.71850731       3.01965194      -0.22925225       0.52279056
H        4.71953013       1.12034657       1.33238741       1.31433276       0.50134200       1.95542364
H        5.99311306       1.48160484       2.53984954       1.16766106       0.10063220       0.52627406
H       -1.33357046      -0.80897043      -0.30952606       0.39876112      -0.23697366      -1.89717501
H        1.64151897       4.60855343       2.49312391      -0.95037727      -0.34855399      -1.83027295
H        1.91042902       4.94027521       4.01664593       0.05803886       0.74852111       1.52424572
H        3.29240181       4.43296888       3.05717613      -0.44509657      -0.04772895       0.10199366
H        0.46635242       2.04822662       4.98933842      -0.56885796       0.29406453      -1.12840806
H        0.07731872       3.75532391       4.47888972       1.25459474      -2.17663106      -1.16172433
H        0.09560808       2.36625781       3.20351626      -1.11949538      -0.17274710      -0.31096045
23
Properties=species:S:1:pos:R:3:REF_forces:R:3 smiles="[H:17][C:11]([H:18])([H:19])[C:13]([H:23])([C:12]([H:20])([H:21])[H:22])[N+:9]1=[N:3][O:5][C:7](=[C:8]1[C:10]([H:15])([H:16])[C:6](=[O:1])[O-:2])[O:4][H:14]" total_charge=0 REF_energy=-18598.923738783706 config_type=PubChem pbc="F F F"
O        4.28159215       0.44934409       1.49369361      -1.28275190      -0.50114042      -0.16817006
O        4.32045605       0.44314991      -0.79552123      -1.41768775      -0.46929960       2.84373382
N       -0.66303835       1.06195357       2.16647103      -0.09711152      -1.04799340       1.46061105
O        2.44500854      -0.38177184       3.16180899      -4.04746401       1.46803157       0.74876196
O        0.21962698       0.56727296       3.16876509      -0.76771847       1.09929608      -0.37990347
C        3.76532103       0.30086037       0.34441852       1.87133921       0.84843536      -2.07840678
C        1.34432509       0.20591672       2.60286667       2.85003636      -1.78476106      -1.48842369
C        1.20718249       0.33470899       1.22353735       0.57683230      -0.25773058      -0.00085477
N       -0.07535748       0.82248040       1.04883411       3.79088464      -1.16590857       1.68103937
C        2.25414695      -0.08822802       0.18743431      -1.62442670      -0.57203801       0.25569024
C       -1.39694545      -0.39119766      -0.58868907      -1.15321411      -0.50675262      -1.30505135
C       -1.66799329       2.25168278      -0.10831777       0.75010324      -0.90452306      -0.78510388
C       -0.73895512       0.91429319      -0.21286611      -2.35389495       2.78574180      -0.47445063
H        3.23246195      -0.07433597       2.63602402       1.18267550       0.43107279      -1.20554259
H        1.93076279       0.44428829      -0.69683883       0.24703437      -0.49259606      -0.56929830
H        2.17850556      -1.21982870       0.06097688       0.11410598       1.52092511      -0.04059241
H       -0.66459201      -1.19953260      -0.47635398      -0.27516292       0.12173455      -0.20863201
H       -2.33930466      -0.68607316      -0.09571121       0.62295229       0.47569345       0.33578446
H       -1.70757887      -0.30093227      -1.67492578       0.65956948      -0.20510577       1.15328380
H       -1.15843937       3.19037702      -0.47366724      -0.31371782      -1.24052109       0.66506880
H       -2.53524993       2.09586563      -0.72845111      -0.19959592      -0.03719594      -0.37240295
H       -2.05259678       2.34428122       0.90379157       0.23090133       0.21745123      -0.08558830
H       -0.00826273       1.08650084      -0.97620414       0.63759349       0.21883746       0.01558501
34
Properties=species:S:1:pos:R:3:REF_forces:R:3 smiles="[H:25][c:9]1[c:10]([c:12]([c:14]2[c:13]([c:11]1[H:27])[C:3](=[O:1])[N:16]([C:4](=[O:2])[N:15]2[H:29])[C:19]3([C:18]4([C:20]3([C:17]([C:7](=[C:5]([C:6](=[C:8]4[H:24])[H:22])[H:21])[H:23])([H:30])[H:31])[H:34])[H:32])[H:33])[H:28])[H:26]" total_charge=0 REF_energy=-23908.72864581095 config_type=PubChem pbc="F F F"
O        0.11954852      -0.30484263       2.69890024      -0.44166431      -0.30664003      -0.38465964
O        0.64719651       3.12682678      -0.23734281      -0.84579007      -0.98548189       0.44105560
C        0.77246880       0.55742001       2.15248813      -1.19175745      -0.98834925       1.03437051
C        0.97442805       2.39423408       0.70285844      -0.73608211       2.90387865      -3.62998947
C       -1.78233741      -1.41780708      -2.84225986      -1.08223347       1.79259631       0.65440793
C       -0.50709531      -1.73253820      -2.10768983      -0.32481735       0.64150490       1.99441581
C       -2.70102689      -0.38421241      -2.68079064       2.07397528      -1.05341933       0.43580576
C       -0.20712433      -1.33124528      -0.81878135      -1.30063641      -0.72445128      -1.52070062
C        3.99629785       0.23753383       4.03115561      -0.65962625       0.03599957      -0.63881369
C        4.64546968       1.42550739       3.62155964       0.24575406      -1.19671847       0.88820444
C        2.71180059      -0.05758748       3.53435638       1.06437034       0.60259844       0.83373466
C        4.05497505       2.26831605       2.71123578      -0.28101853       0.26832031      -0.00300863
C        2.10224261       0.86172791       2.67526056       0.38322021       0.26909220      -0.43298541
C        2.75682642       2.01442434       2.24710443       1.07858514      -0.44232418       0.04995132
N        2.14398601       2.79827692       1.28121414       0.65390025      -1.10750227       1.55303438
N        0.24677252       1.28612670       1.08494308       1.16430500      -0.09200372       0.46214521
C       -2.59721181       0.81181317      -1.74054787       0.22642622       1.52164008      -0.03863538
C       -1.23191378      -0.49698553      -0.10939584       1.12130278       0.78407712      -1.20710680
C       -1.05222330       0.88220312       0.52376342      -1.03197347       0.13518909       0.32222076
C       -1.27565870       0.76640595      -0.98630176      -1.13978509       0.16835092       0.71756278
H       -2.07342527      -2.08762500      -3.64382074       0.33328771      -0.18229007       0.11111916
H        0.19550609      -2.39433859      -2.58879278      -0.03849165      -0.05192054      -0.19521443
H       -3.56252000      -0.39135490      -3.32914588      -0.06643831      -0.04092061      -0.12093752
H        0.70269885      -1.60289380      -0.33567701       0.58985870      -0.29949588       0.10257859
H        4.51230671      -0.47636435       4.67133286      -0.22657604       0.31848107      -0.05729785
H        5.63787224       1.61418941       4.07279493      -0.68092349       0.10929962      -0.66180711
H        2.16668143      -0.94139085       3.87245633       0.20188993       0.36770927      -0.36893407
H        4.59985640       3.11498024       2.34175255       0.06187072       0.36843249      -0.05420812
H        2.63526394       3.57702687       0.82789182      -0.72602101      -0.75637027       0.31775208
H       -3.41546533       0.84789189      -1.01826642      -0.17914077      -0.25001204      -0.13012894
H       -2.68897984       1.79560759      -2.29462669       0.07802899      -1.15475500       0.26019075
H       -2.19516156      -0.98869095       0.09780159       0.56238018       0.41196913      -0.22334996
H       -1.91553566       1.19616666       1.20828356       1.38097817      -0.50580644      -1.21779076
H       -0.42449341       1.02322345      -1.63168857      -0.26074451      -0.56149327       0.70901103
14
Properties=species:S:1:pos:R:3:REF_forces:R:3 smiles="[H:8][C:3]([H:9])([H:10])[N:2]([H:7])[C:5]([H:13])([H:14])[C:4]([H:11])([H:12])[O:1][H:6]" total_charge=0 REF_energy=-6797.927840868963 config_type="DES370K Monomers" pbc="F F F"
O       -2.19153428      -0.62915766       0.17711988      -1.35913691      -1.38495953      -3.06111051
N        0.52916902       0.03233330      -0.22787793      -0.85864921      -1.25846098      -0.22626309
C        1.90795231       0.36151114      -0.14380427       2.15280711      -2.09377125       0.82500995
C       -1.55950892       0.54815167       0.57616842      -0.08034829      -1.56837211       1.79301890
C       -0.24472242       0.08124784       1.04822922       2.36118726       1.55975634      -2.38017448
H       -1.95941257      -0.84534711      -0.77997982      -0.50532444       0.66834549       2.12343970
H        0.35262138      -0.86165416      -0.75241327       0.45316664       1.41804561       1.10072425
H        2.56130099      -0.59653705      -0.30708844      -0.71355580       1.70708547       0.48022015
H        2.16839290       1.03894973      -0.92258423       0.46627635       0.70800703      -0.48613575
H        2.18295312       0.80096149       0.86307955      -0.31424120      -0.49011763      -1.24029490
H       -2.03126597       0.90204483       1.45905065      -1.34398795       0.61037356       0.42704520
H       -1.46976066       1.26597095      -0.19782880       0.04717456       0.79549235      -0.44705048
H        0.20117743       0.83881927       1.68022692       0.36916524       0.03613321       0.16697917
H       -0.18892212      -0.87935114       1.49177491      -0.67254513      -0.70764825       0.92421151
20
Properties=species:S:1:pos:R:3:REF_forces:R:3 smiles="[H:15][C:10]([H:16])([H:17])[N:9]([C:11]([H:18])([H:19])[H:20])[N:8]([H:14])[C:7](=[S:6])[C:13]([C:12]([F:1])([F:2])[F:3])([F:4])[F:5]" total_charge=0 REF_energy=-32711.576754965623 config_type=PubChem pbc="F F F"
F       -1.29505489      -0.91917882      -1.47232912       0.38744929       1.30716064      -1.12018802
F       -1.72515247       0.36767464      -3.27358267       0.87127426      -0.07629855       1.66483917
F       -2.66014574       0.72305741      -1.33395073       1.58186034       0.43535109      -0.52723182
F       -0.71298227       2.50606729      -1.05845020       0.32243436      -1.44796546      -0.42119934
F        0.55932056       1.51194324      -2.58559320      -1.25577013       0.22385537      -0.05142912
S        2.11674192      -0.18724392      -1.00313768      -1.44908540       0.93334203       0.40707799
C        0.77187299       0.67370381      -0.49237631       1.15241464      -1.12526416       2.84273038
N        0.48215146       0.88712003       0.86832228      -0.55504412      -0.01261602      -0.39194021
N        1.31687083       0.40762071       1.96119096      -1.01831794       1.19833684      -0.91850336
C        1.52842917      -1.03411434       2.18970897       1.32882618       1.97321206      -0.18004969
C        1.79335167       1.46449627       2.92536523      -1.48437613      -2.91430812      -1.74584264
C       -1.47392295       0.36322684      -1.93733142      -1.64274631      -1.08543769       0.59049271
C       -0.22237895       1.27411910      -1.50629089       0.33605076       0.82585428      -0.25805246
H       -0.46563855       1.36649283       1.07134470       2.27677792      -1.16320830      -0.06655295
H        0.66567273      -1.63268230       2.02542915      -0.50271809      -0.47474206      -0.22856871
H        1.92418291      -1.13350687       3.18240549      -0.57689546       0.01960153       0.92052720
H        2.42173102      -1.29161332       1.64262190      -0.25730418      -0.80398549      -0.92088751
H        1.92629292       2.30635108       2.37651815       1.46489518       2.39696264      -1.84675317
H        2.62985685       1.14815052       3.49382641       0.70735252      -0.29344690       0.23873375
H        1.00234475       1.78186014       3.50985339      -1.68585183       0.08259455       2.03491281
46
Properties=species:S:1:pos:R:3:REF_forces:R:3 smiles="[H:36][c:19]1[c:20]([c:22]([c:24]([c:23]([c:21]1[H:38])[H:40])[O:6][C:27]([H:43])([H:44])[c:11]2[c:15]([c:17]([c:13]([c:9]([n:3]2)[C:7](=[O:1])[N:26]([H:42])[c:10]3[c:14]([c:18]([c:16]([c:12]([n:4]3)[C:28]([H:45])([H:46])[C:8](=[O:2])[N:25]([H:41])[O:5][H:29])[H:33])[H:35])[H:31])[H:30])[H:34])[H:32])[H:39])[H:37]" total_charge=0 REF_energy=-35203.89079544626 config_type=PubChem pbc="F F F"
O       -1.13223217      -2.98532865       1.54339065       0.60383796       1.43009689       0.24764707
O        2.09741940      -0.40143184      -5.59702060      -0.08150300       0.48064428       1.07893136
N       -0.65214286       0.57448881       1.49257888       0.11399071      -0.19468937       0.14442128
N        0.30054557      -1.71817515      -1.99975274      -0.13683155      -0.19965471       0.09039277
O        3.30294564       0.93533542      -3.34478018      -0.99418624      -0.28179742       0.53761724
O       -0.49617956       4.11585690       2.49667658       0.59913648      -0.85928973      -0.78986998
C       -0.62555239      -1.89158819       1.30282815      -0.49084692      -1.45722557      -1.03652691
C        1.58675541      -0.50295160      -4.48132465       1.77791310       0.51256206      -0.67826162
C       -0.98521397      -0.63041399       2.01662078      -0.18883139       1.67960948       1.64544149
C        0.19240366      -2.46617815      -0.89701781       1.30402246      -0.28836831      -1.54456976
C       -0.95174656       1.68729808       2.17502537      -0.25124933      -0.27999565       0.17794508
C        0.40827579      -2.33294675      -3.16475198      -0.63649544      -0.31012276      -0.72915948
C       -1.60579774      -0.68910453       3.27068903      -0.20337252      -1.17322987       1.01110909
C        0.26373716      -3.84384439      -0.94146178       0.24093782      -1.63200899       0.40293033
C       -1.63788030       1.66236439       3.39045264      -0.30650000      -0.11289649       0.77986371
C        0.44747686      -3.71606395      -3.32034395      -0.01760135      -0.30442626       0.77822472
C       -1.95949385       0.45546070       4.00072195       0.64041826       0.07660821      -1.46322186
C        0.39980733      -4.50559184      -2.17537139      -0.42549185       1.17062196       0.67112787
C        3.15300252       4.76278164       4.49286749       0.46286824      -0.34299300      -0.13641634
C        3.15035250       3.86086180       3.42124965      -0.73811005       0.60486481      -0.09904549
C        1.98910334       5.39882757       4.88911821      -1.05300768      -0.60074688      -1.39317837
C        1.96347787       3.62581994       2.68846729      -0.07907409       0.52412819       0.79197554
C        0.78394737       5.11685945       4.19112470       0.64786255       0.72727746       0.13549172
C        0.75507329       4.27144553       3.07112982       0.82981685      -0.37829777       0.87817053
N        2.15951373       0.10324802      -3.33877418      -1.51871287      -1.42465063      -2.32463089
N        0.24016853      -1.70463965       0.23325189      -0.74617240       1.54269098       1.92661565
C       -0.66149805       3.04291870       1.54441263       0.52240969      -0.23623879      -0.08477512
C        0.35697510      -1.44972465      -4.37783382       0.31533114       0.17750464       0.06879501
H        3.80961706       0.79611938      -4.15455148      -0.57636234      -0.58929246      -0.24459070
H       -1.77064989      -1.66218707       3.75993778       0.03322937       0.43238330      -0.67938617
H        0.32181979      -4.43256662      -0.01542697      -0.31341771       0.52599644      -0.52594995
H       -1.92782138       2.57446983       3.89858152       0.28313052       0.09063892      -0.29354825
H        0.50667115      -4.16367814      -4.28918788       0.08117952      -0.02499307      -0.38368732
H       -2.45079944       0.43430005       4.97420599       0.20215241      -0.20509118      -0.41658135
H        0.42248557      -5.58917997      -2.18958590       0.12736036       0.18571792      -0.14446790
H        4.09763577       4.97053577       4.99630882      -0.32184707      -0.05017200      -0.08909444
H        4.11092570       3.42269518       3.13509347      -0.60903898      -0.05165657      -0.06956962
H        2.01098790       6.15278580       5.65495683      -0.13179621      -0.02440296       0.24087156
H        2.01142909       2.96012356       1.85057881      -0.11136917      -0.19537576      -0.20615309
H       -0.12127421       5.67115785       4.44854691       0.23118338      -0.37104280      -0.03642514
H        1.69302716      -0.12424342      -2.47265098       0.67863667       0.50881956       0.40363225
H        0.40758139      -0.71136854       0.04042580      -0.13784475      -0.55930640       0.08730767
H       -1.53079007       3.26862862       0.94577904      -0.26979350       0.47615009      -0.02399342
H        0.16593405       2.94826462       0.82661309      -0.11864355       0.15579917       0.43316043
H       -0.57805679      -0.87145183      -4.34516475       0.40619167      -0.01382942       0.03806794
H        0.32018506      -2.07783792      -5.30448101       0.35806694       0.86377130       0.82147277
26
Properties=species:S:1:pos:R:3:REF_forces:R:3 smiles="[H:7][C:3]([H:8])([H:9])[C:1](=[C:2]([C:5]([H:13])([H:14])[H:15])[C:6]([H:16])([H:17])[H:18])[C:4]([H:10])([H:11])[H:12].[H:24][C:22]([H:25])([H:26])[C:21](=[O:19])[O:20][H:23]" total_charge=0 REF_energy=-12659.11348117335 config_type="DES370K Dimers" pbc="F F F"
C        1.85423994      -0.10644000      -0.05772000       0.07341954      -1.25555592      -0.38402044
C        1.79875994      -0.29532001       1.27807999       0.22180857      -2.84414554      -0.50586571
C        3.12070990       0.21022999      -0.81876999       0.33808934       0.06594275       0.08850296
C        0.65753996      -0.18550999      -0.97701996      -0.46874125      -0.19725635       0.08784040
C        0.52485001      -0.56173998       2.04592013      -0.35753333      -0.05675316      -0.10264484
C        3.00289988      -0.26650000       2.19058013       0.46048383      -0.20041245       0.02987533
H        3.39514994      -0.65094000      -1.45097005      -0.07898380       0.31336617       0.24289185
H        2.92878985       1.07862997      -1.47119999       0.19337680      -0.55963197       0.27235524
H        3.97188997       0.44746998      -0.15861002      -0.42222299      -0.10394519      -0.45129121
H       -0.24171001      -0.58639997      -0.47977000       0.49147381       0.12842121      -0.37416080
H        0.42552000       0.82010001      -1.36628008       0.12025844      -0.71900953       0.09570056
H        0.91181999      -0.84154004      -1.82647002      -0.15284305       0.24198274       0.31747289
H       -0.38341999      -0.41361001       1.43787992       0.48528088      -0.06977003       0.44743504
H        0.48648000       0.12446999       2.90861988      -0.07425292      -0.34954369      -0.29733670
H        0.53160000      -1.59886002       2.42137003      -0.04414493       0.42794483      -0.07173909
H        2.95372987       0.62618005       2.83658003       0.09061426      -0.49033666      -0.16804577
H        2.97890997      -1.16508996       2.82978010       0.07994002       0.39094318      -0.21336074
H        3.95923996      -0.25097999       1.64121008      -0.52089895      -0.04520644       0.40752409
O        1.43777990       2.45790005      -0.67358005      -0.02680386       1.11584106       0.33223265
O        1.70078993       2.05159998       1.52909994      -0.37220288       3.46778588      -0.57627871
C        1.52563000       2.87291002       0.46050999       0.11882901      -0.50334743       1.27411321
C        1.46116996       4.30890989       0.88730997      -0.09515815       0.87392184      -0.30684845
H        1.73115003       1.13057995       1.15118003      -0.12190107       1.14380564      -0.18371147
H        1.31896996       4.96162986       0.00961000       0.07336545      -0.37842323       0.41270095
H        2.39568996       4.60097980       1.39522004      -0.45584822      -0.23063618      -0.13863058
H        0.61918003       4.46561002       1.58236992       0.44815450      -0.16398900      -0.23408094
20
Properties=species:S:1:pos:R:3:REF_forces:R:3 smiles="[H:5][C:3]([H:6])([H:7])[C:1]#[C:2][C:4]([H:8])([H:9])[H:10].[H:15][C:13]([H:16])([H:17])[C:12](=[O:11])[C:14]([H:18])([H:19])[H:20]" total_charge=0 REF_energy=-9506.021767020664 config_type="DES370K Dimers" pbc="F F F"
C        0.57436997       1.97476006       2.94055009       0.59240130       1.60915970      -0.02044120
C        1.17618000       2.94075989       2.50930023      -1.15778035      -1.01430332       1.34615965
C       -0.14979000       0.81299996       3.45886993      -0.32462691      -0.11541394       0.48999355
C        1.89967012       4.10263967       1.99029994       0.04534205       0.38444474       0.19418730
H       -0.06237000      -0.03602000       2.76020002      -0.12704957       0.58130038       0.59748142
H       -1.21841002       1.05384993       3.58788990       0.44791820      -0.07302879       0.01341328
H        0.26269999       0.50879002       4.43556023      -0.21178658       0.16787569      -0.36407877
H        2.40100002       3.84922003       1.04105997      -0.15062540       0.36787578       0.46150307
H        1.20275998       4.93793010       1.80803001       0.35388167      -0.30217596       0.05897629
H        2.66339993       4.43323994       2.71420002      -0.30685465      -0.07460186      -0.34839867
O        0.85960996       0.00617000       1.17333007       0.91500548       0.06016051      -1.51937841
C        1.48656988       0.95577002       0.73287004      -0.28256116      -0.37180385       0.22805434
C        0.85213995       1.97617995      -0.18382999      -0.44456963       0.16327357      -0.59333236
C        2.94214988       1.17912006       1.07269001       0.70355155      -0.26926864       0.08345731
H       -0.20381000       1.71972013      -0.37307000       0.54289434       0.06577628       0.16014140
H        1.38503003       2.00738001      -1.14906001      -0.13768494      -0.00490748       0.35891833
H        0.89408999       2.97889995       0.27377000      -0.09217037      -0.75402587      -0.63346844
H        3.55453992       1.16752994       0.15538000      -0.24096371       0.03649717       0.29314787
H        3.07363987       2.15421009       1.57119012       0.14502143      -0.83259089      -0.47261134
H        3.30561995       0.38670000       1.74838006      -0.26929369       0.37523123      -0.33428637
46
Properties=species:S:1:pos:R:3:REF_forces:R:3 smiles="[H:43][c:21]1[c:36]([c:38]2[c:35]([c:20]([c:18]([n:13][c:37]2[c:34]([c:19]1[H:41])[N:39]3[C:14](=[O:1])[c:30]4[c:31]([c:27]([c:23]([c:22]([c:26]4[Cl:9])[Cl:5])[Cl:6])[Cl:10])[C:15]3=[O:2])[C:40]5([C:16](=[O:3])[c:32]6[c:33]([c:29]([c:25]([c:24]([c:28]6[Cl:11])[Cl:7])[Cl:8])[Cl:12])[C:17]5=[O:4])[H:46])[H:42])[H:44])[H:45]" total_charge=0 REF_energy=-138445.89373317422 config_type=PubChem pbc="F F F"
O       -1.59015629      -0.64771829      -1.87352321       1.56765134      -0.65092986       1.16541400
O       -1.10311220      -1.73561308       2.55796172       0.53640920       1.84276040      -3.41175602
O        2.83987858       1.85156574      -1.46208189      -0.70063852      -0.49200263      -0.70012420
O        2.56697084       1.21316209       3.07960369      -0.61555571       0.71898790      -0.47390776
Cl      -2.96317074       4.54889156       0.15500115       0.39252903      -1.72534898       0.23626466
Cl      -2.75731799       3.71530487       3.28303149       0.50743651      -0.87943914      -1.70115633
Cl      -0.47156594       6.62722875       0.31785201       1.22442385      -1.96594911      -0.54647634
Cl      -0.18979774       5.84279968       3.21391108      -0.65829996       1.12758956       0.08635417
Cl      -2.48162958       2.29026689      -2.08719585       0.56951526      -0.24992513       1.15978692
Cl      -1.80590341       0.84156736       4.05932715       0.15571842       0.57499849      -0.64601796
Cl       1.01861157       4.73313524      -1.80693195       0.10208198      -0.72071858      -0.11119031
Cl       1.10707714       3.44860317       4.35545470       0.03550012      -0.18943097      -2.08886312
N        1.51887526      -0.85983965       0.33721302      -1.52958748       1.81589848       0.53605318
C       -1.32711110      -0.52479908      -0.68458829      -2.90642931       0.14189015      -3.58695788
C       -1.15558395      -1.04950878       1.50282772      -0.69537773      -3.13991361       5.20525129
C        2.38615527       1.83789673      -0.34870622       3.15409537       0.76579983      -1.31573479
C        2.31976976       1.66405096       1.97113730       3.37748135      -5.40181746       3.00394175
C        2.71770813      -0.41605226       0.44398107       1.31858623      -3.14852741      -0.16535561
C       -0.39258311      -3.68597410      -0.69832776       0.45357978       0.74411828       0.85293638
C        3.76773407      -1.35977135       0.13938483       0.84904903       1.04856347       0.46071499
C        0.62876478      -4.53875682      -1.11569057       0.51318369       0.82928559       0.47128967
C       -2.36413453       2.92888548       0.58370516      -0.22170297       0.16060926       0.34836529
C       -2.22017811       2.61173226       1.95825865      -0.48244857       0.08681214       0.89504633
C        0.27560785       5.00235416       0.68667386      -0.04110834       0.82987939      -0.55196133
C        0.30811043       4.74938204       2.02584805       1.18450135      -1.00629550       2.79849924
C       -2.09492872       1.93450310      -0.40077094      -0.68240410       0.22121578      -0.00585173
C       -1.80584476       1.33076837       2.38464608      -0.63584900      -1.79087937      -0.44185273
C        0.93874743       4.10881712      -0.19104186       0.53235927       0.47794106      -1.28516400
C        0.99675154       3.63544132       2.57599738      -0.33219346      -0.08158532      -0.55290362
C       -1.70428870       0.65832894       0.03086342       0.10633464       1.85025267       2.82571570
C       -1.60883019       0.30205176       1.41741576      -0.16941468       5.00609487      -0.92320696
C        1.64584055       2.92542865       0.23307659      -4.07694912       3.57333817       1.96305144
C        1.56403723       2.76247789       1.63127532      -1.26184809       2.26780446       0.24181959
C       -0.07887230      -2.44014141      -0.15883676      -1.28369734      -3.22203690      -1.16869673
C        3.59113934      -2.65505645      -0.27328674       1.00427430       3.42096891       0.66767581
C        1.98219659      -4.19142768      -1.01831553      -3.09885831      -3.28120436      -0.91711316
C        1.24309578      -2.09713075      -0.09627704       1.59851981       0.48422968       0.60236674
C        2.27377226      -3.00820492      -0.43548713      -0.21628687       0.04449655      -0.41220192
N       -1.06687687      -1.52572558       0.23111274       1.12628079      -0.58945634      -1.08318776
C        3.00221874       0.98885520       0.77768787      -0.95638490       1.43807757      -0.90898235
H       -1.39072309      -4.07865617      -0.70254503      -0.37075165       0.29556503      -0.08377683
H        4.74025681      -0.93736217       0.24104308       0.80024937      -0.09602052      -0.00493610
H        0.26439002      -5.49053190      -1.38472733       0.27675405      -1.04018482      -0.71664849
H        4.46498038      -3.20527050      -0.56420157      -0.14747953      -0.57872215       0.01333554
H        2.66323425      -4.97027538      -1.35477195       0.40504675       0.62684465       0.28974287
H        4.08883717       1.20646717       0.80516808      -0.70562290      -0.15974671      -0.02553823
39
Properties=species:S:1:pos:R:3:REF_forces:R:3 smiles="[H:21][c:7]1[c:8]([c:10]([c:12]2[c:11]([c:9]1[H:23])[C:4](=[O:1])[C:6]3=[C:5]([N:13]2[C:15]([H:28])([H:29])[H:30])[O:3][C@@:20]([C:18]3([H:37])[H:38])([H:39])[C:19]([C:16]([H:31])([H:32])[H:33])([C:17]([H:34])([H:35])[H:36])[O:2][C:14]([H:25])([H:26])[H:27])[H:24])[H:22]" total_charge=0 REF_energy=-24549.260579850787 config_type=PubChem pbc="F F F"
O        0.57438644      -2.55380580       1.88209345      -0.11691506      -0.36025580       0.42551967
O       -2.98313091       0.69457174      -0.98201440       0.55389392      -0.08721569       0.90963436
O       -0.14111684       1.85007920       1.04658361       0.27520190       2.32046559      -0.38174251
C        1.01606652      -1.40833316       1.91688611      -0.37893113      -0.81850938      -0.74148500
C        0.73114926       0.95943647       1.47150948       0.76480889      -2.51335265       0.42726458
C        0.19643035      -0.28729908       1.58517255       1.03131183       0.30103215       0.52375263
C        4.69159319      -2.02600429       2.51897242      -0.86634108       0.61485041       0.09530609
C        5.19254543      -0.70361552       2.36388852      -0.66848041      -0.58757488      -0.47259269
C        3.31941487      -2.24223421       2.43698134       0.91153982       1.92480898      -0.70997018
C        4.34640314       0.36657904       2.04398253      -0.78688084      -1.39063369       0.31433356
C        2.46352150      -1.16305778       2.11199775      -0.37485548       0.25887037       0.31654455
C        2.93612840       0.14570572       1.94013526       1.22117581       0.00410977       0.48170494
N        2.05831399       1.22404256       1.70956733      -0.74182491       0.93815045      -0.79381622
C       -3.62705085       0.68854094      -2.24726317       1.71698728       0.50027369      -0.35461722
C        2.53578212       2.61802914       1.66109206       1.18658841      -0.53718267       0.16960598
C       -0.62838969       0.61193093      -1.65886829       0.14860554      -0.55966613      -0.62763215
C       -1.73024938       2.80667760      -1.25190971      -0.50443273      -0.31875488      -0.14974598
C       -1.25230334      -0.24409053       1.27086886      -0.10158505       0.09767440      -0.92405992
C       -1.66777942       1.31968166      -0.81393371      -0.75463653       0.49703249      -1.14258622
C       -1.37046144       1.20690533       0.70060404      -1.60509674      -1.22272513       0.25328125
H        5.31526758      -2.89946649       2.68720081       0.20956809       0.47127620       0.09893744
H        6.26618721      -0.58556566       2.42881205      -0.08861799       0.34182770      -0.05487661
H        2.91236140      -3.20958350       2.54294135      -0.52326243      -0.75612572       0.06401363
H        4.72487022       1.33341660       1.82695522       0.45392941       0.54854237       0.10995813
H       -3.87264774       1.71500899      -2.53663013      -0.09284764      -0.19513463      -0.19825392
H       -4.51652811       0.10132777      -2.16946814      -0.48375023      -0.26479348       0.28328446
H       -2.98089287       0.21749442      -3.02656434      -0.47248524       0.39665550       0.42833986
H        3.31721045       2.74363973       0.88309075      -0.45753912      -0.13365767       0.45992932
H        1.74717285       3.32087280       1.43828162      -0.33126150      -0.23515945       0.07613360
H        2.97796776       2.84448292       2.64671542      -0.16182283       0.13273952      -0.50081178
H        0.36052763       1.05415531      -1.46299181      -0.36299458      -0.06690579      -0.32650963
H       -0.55732880      -0.45535288      -1.37249122      -0.12544074       0.54148558      -0.36543250
H       -0.90255246       0.70978635      -2.75484917       0.58451516      -0.17138191       1.34477810
H       -0.78256700       3.26505639      -1.05633018       0.54583166       0.27890220       0.19282208
H       -1.91725633       2.94521596      -2.33574817       0.02886916      -0.37999806       0.62517625
H       -2.49576614       3.36017658      -0.70184455       0.04840071      -0.17429836      -0.03121335
H       -1.86580441      -0.37431643       2.16281154      -0.05048314      -0.05273640      -0.17083893
H       -1.54273102      -0.98744319       0.51542416      -0.01782105       0.20439053       0.40268381
H       -2.21083257       1.67526557       1.21624949       0.38980504       0.45151475      -0.06074251
38
Properties=species:S:1:pos:R:3:REF_forces:R:3 smiles="[H:28][C:13]1([C:14]([C:16]([C:19]2([C:18]([C:15]1([H:32])[H:33])([C:8](=[O:3])[N:9]([C:12]2([H:27])[C:6](=[O:1])[O:4][H:20])[C:7](=[O:2])[C:17]([H:36])([C:10]([H:22])([H:23])[H:24])[C:11]([H:25])([H:26])[S:5][H:21])[H:37])[H:38])([H:34])[H:35])([H:30])[H:31])[H:29]" total_charge=0 REF_energy=-34323.13197749736 config_type=PubChem pbc="F F F"
O        0.05146315       2.32522990      -2.75935981       0.77709789      -0.82510174       0.77080622
O        1.08194335       3.57561972       0.97759097      -0.23078137       0.20432190       0.35145040
O        1.56154491      -0.33757714       1.89416184      -0.11977976       0.24117740      -0.53018576
O        1.74145844       0.97387381      -2.18955372      -0.35305155      -0.05823588       0.42731516
S        3.60989716       2.21129610       4.95106747      -0.71752320       0.58930676       0.08689204
C        0.63491092       1.68721869      -1.89598081      -1.34194099       1.41124211      -1.39187419
C        1.45828511       2.46687593       1.31548622       1.20759512       2.88016448      -0.24936367
C        0.94780823       0.11593034       0.94611891       0.24536605      -2.22004988       1.80411672
N        0.92917486       1.44045301       0.60098909      -0.94110358      -1.77178100      -0.88860086
C        3.84135987       1.63245191       1.77003648      -0.14749620      -0.64587385      -0.35952751
C        2.20569553       2.08407452       3.73952295       0.15177286      -2.04317408      -0.22227718
C       -0.02160750       1.63806941      -0.50740145       0.58406929       1.56334972      -0.85796662
C       -1.79318616      -2.38095758      -0.36941669       0.67864004      -0.05992125       1.06010871
C       -2.68678138      -1.30161403      -0.90661631       0.09696878       0.18469406      -1.77443339
C       -0.85682807      -1.82496736       0.74888485       0.77697863       0.26032367      -0.63237937
C       -1.88199113      -0.10281292      -1.49516199      -0.17666056       0.57839910       0.68637619
C        2.64819600       2.43249633       2.30451610       0.11004681      -0.47916798       0.37138165
C       -0.02074943      -0.69442365       0.09362193      -1.08790491       1.15475789       0.69305803
C       -0.95427678       0.47426010      -0.39559868      -0.32925761      -2.57601712      -0.01722443
H        1.84621944       1.04107525      -3.15774319      -0.01210256       0.11225806       0.50774402
H        4.48276164       1.29770043       4.50840237      -0.40693328      -0.11428059      -0.33038751
H        4.78761627       1.93740299       2.18827000       0.06961747       0.47391124       0.29174380
H        3.76585104       0.56675725       1.98319926      -0.24110575       0.07980416      -0.13827736
H        3.93859388       1.76124241       0.68678039      -0.10400046      -0.04608000       0.16042229
H        1.39246525       2.74900867       4.03059508       0.43020422       0.17647426       0.36587536
H        1.78398325       1.03429910       3.80401732       0.63608707       1.26891645      -0.19753875
H       -0.61415587       2.57603146      -0.39116112       1.03335067      -0.64374982      -0.20442912
H       -2.39265344      -3.20857141       0.02538826       0.19983346       0.09292275      -0.13980581
H       -1.16368637      -2.75576470      -1.19238064      -0.17852433      -0.06476577       0.34435797
H       -3.32440088      -0.90999303      -0.14347265      -0.52135959       0.13224207       0.57326713
H       -3.33663270      -1.75724242      -1.70116756       0.48574042       0.66105910       0.63135405
H       -0.18857465      -2.59575579       1.12084784       0.07395911      -0.13109183      -0.06875959
H       -1.36260912      -1.43770525       1.63178315      -0.38177321       0.02477486      -0.18792604
H       -2.58203123       0.66332043      -1.79453299      -0.20305071       0.20641153      -0.25938831
H       -1.32702038      -0.38905327      -2.37510584       0.28232033      -0.17698162      -0.22074641
H        2.98278906       3.47357657       2.36245300      -0.42980494      -0.13650215      -0.30462085
H        0.52931260      -1.15730152      -0.71354447       0.16454902       0.23808039      -0.49456060
H       -1.60541151       0.80420985       0.41319839      -0.07832180      -0.54315763       0.34028810
46
Properties=species:S:1:pos:R:3:REF_forces:R:3 smiles="[H:34][c:14]1[c:16]([c:23]([c:17]([c:15]([c:21]1[C:8]2=[N:5][N:27]([C:10](=[N:7]2)[N:25]([H:40])[c:22]3[c:19]([c:24]([c:18]([c:13]([c:20]3[F:1])[H:33])[H:38])[C:29]([F:2])([F:3])[F:4])[H:39])[C:30]([H:44])([H:45])[H:46])[H:35])[H:37])[N:26]4[C:11](=[C:12]([N:6]=[C:9]4[H:31])[C:28]([H:41])([H:42])[H:43])[H:32])[H:36]" total_charge=0 REF_energy=-40834.7407162935 config_type=PubChem pbc="F F F"
F       -3.86517093       1.65860226      -3.47440479       0.26039293      -0.62262215      -0.03418450
F       -0.94635353      -3.04113147      -6.60520885      -0.51205314      -0.49503866       0.45853731
F        0.26674910      -2.80248830      -4.85023544      -0.01404580      -0.40485612       0.07935497
F       -1.54794476      -4.01110933      -4.67061851       0.48308187      -0.13217760      -0.87708617
N        1.13639589       1.16881128      -0.76913927       2.10540020       0.02797645       0.56765095
N        4.61711218       2.20586779       6.90442755      -0.10912666      -0.40805821       0.64404960
N       -0.89988122       0.82400825       0.12743207       2.06058855       0.15555402       0.55718710
C        0.45406464       1.12006571       0.33908093      -0.24684927       0.25049395       0.29449494
C        4.42506745       2.04471090       5.62160828      -2.68850096      -0.62419812       2.21244077
C       -0.92959330       0.62564873      -1.16609523      -0.35456733      -0.43554735       0.49907464
C        2.56533053       1.30849906       6.68278696       0.81149675       0.64889739      -0.34032210
C        3.46695234       1.73922088       7.60512640       0.68099183       0.50022512      -1.35585358
C       -3.35098121       0.08699145      -5.17607162      -0.12166375      -0.00648817      -0.77049081
C        0.54766397       0.83738124       2.81526115       0.28443814       0.10002301      -0.15571849
C        2.48824015       1.78990831       1.73471357      -0.49168391      -0.17696130      -0.51185981
C        1.22589113       0.85795828       4.02865698      -0.49609818       0.10592139       0.30662229
C        3.11294582       1.84931221       2.96181872       0.28165298       0.46469656       0.63905989
C       -2.66535256      -1.01897225      -5.69031522       0.47915860      -0.54434812       1.22830362
C       -1.63615343      -1.26340566      -3.48741720      -1.04820106       0.19502681      -1.18185258
C       -3.21688221       0.54021604      -3.87087391       0.68678447      -0.67345737      -0.31192103
C        1.17468514       1.26089879       1.64918175      -0.44319684       0.37558053      -0.52839717
C       -2.35203168      -0.14214800      -3.00168083       0.17066938      -0.87863399      -0.85006559
C        2.48627415       1.42398586       4.15363028      -0.17256187      -0.54790210      -1.18440106
C       -1.79542921      -1.71568654      -4.81388852      -0.60956990       1.42149857      -0.13153310
N       -2.15632460       0.21166118      -1.67603705       0.28986430       0.77893930      -0.04764711
N        3.12631418       1.52761485       5.39375307       0.88815610       0.07960978       1.10557461
N        0.33139694       0.78470649      -1.74364231      -3.29053111      -0.07472358      -1.13574434
C        3.30026533       1.76994767       9.11263610       1.02850601       0.00397708      -0.93458979
C       -1.01464997      -2.91863797      -5.26840398       0.10914105       0.86664768       0.71055294
C        0.65988176       0.90207313      -3.18129561      -0.09751296       0.97898307       0.12953094
H        5.13264801       2.27588179       4.87337019       0.30124689       0.14224375      -0.62282090
H        1.59669294       0.92592060       6.94129469      -0.18340412      -0.06681946      -0.70913685
H       -3.97188614       0.62915461      -5.87175319      -0.21425522       0.17967114       0.18201287
H       -0.48866973       0.50745833       2.79597666       0.35075638      -0.11687004      -0.15379816
H        3.01437213       2.18543317       0.84089108      -0.59481104      -0.50677194       0.73151511
H        0.69745356       0.44366862       4.87589981       0.18082570       0.17919208       0.15757605
H        4.09690167       2.30683281       3.02293327      -0.21996033      -0.13957191      -0.08922927
H       -2.82680962      -1.37888239      -6.71563861       0.13615942       0.41070714       0.61602215
H       -0.99859581      -1.81370375      -2.81679199       0.06885836       0.08561862       0.16412901
H       -2.95567248       0.42868963      -1.07854245       0.70287579       0.01116111      -0.42820733
H        3.97019484       1.02468171       9.54985954      -0.10072931       0.18481781       0.12555355
H        2.28859212       1.53325464       9.38663532      -0.40325225      -0.09398947       0.06057748
H        3.56140830       2.75460913       9.50735046      -0.01853811      -0.17572338      -0.06336151
H       -0.16417233       1.42199215      -3.72084425       0.52922698      -0.49551023       0.50004683
H        1.55598058       1.54336669      -3.29487321      -0.50041537      -0.57177383       0.32162514
H        0.82523163      -0.07071743      -3.63839958       0.04537850       0.04904615       0.11781918
41
Properties=species:S:1:pos:R:3:REF_forces:R:3 smiles="[H:20]/[C:7](=[N:2][C:4]1=[N:1][C:5]2=[C:6]([S:3]1)[C:12]([C:19]([C:18]([C:11]2([H:24])[H:25])([H:38])[H:39])([H:40])[H:41])([H:26])[H:27])/[N:8]3[C:14]([C:16]([N:9]([C:17]([C:15]3([H:32])[H:33])([H:36])[H:37])[C:13]([H:28])([H:29])[C:10]([H:21])([H:22])[H:23])([H:34])[H:35])([H:30])[H:31]" total_charge=0 REF_energy=-31685.829472654248 config_type=PubChem pbc="F F F"
N       -1.00536892      -1.35847471      -0.53768692      -1.08299222       0.23175154       0.02192708
N        1.00160851      -0.34792958       0.07799926      -1.08253497       0.18713332       0.15199180
S        0.01225045      -2.48191235       1.58862724      -0.17672997       1.34319887      -0.01449825
C       -0.08600924      -1.27716527       0.31804051       5.20421962       2.83859089      -1.11303465
C       -1.87643382      -2.25278423      -0.00479410      -3.51506971       0.86990449      -4.00550184
C       -1.60828135      -2.84111545       1.09802516       1.12014295      -1.41579312       2.56659031
C        0.71523536       0.84855028      -0.40051256       1.26091454      -1.50563097       2.21441277
N        1.74863412       1.75850060      -0.56155119      -1.66388666      -1.27055625      -0.43535495
N        3.49449541       3.64616634       0.64642299      -0.30645436      -0.74273436      -0.11076933
C        4.38052537       5.68836500       1.67016353      -1.09220825       0.73383856       0.11958546
C       -3.14737055      -2.46387432      -0.76658628      -1.20895505       0.24183828      -0.20212707
C       -2.41990683      -3.85440490       1.73388829      -1.09281411      -0.76187792      -1.28740941
C        4.17842509       4.22569539       1.83906497      -1.05296645      -1.13618172      -0.07803961
C        3.17154076       1.31078132      -0.39122221      -2.11971840       1.59388195      -0.58992158
C        1.40788104       3.19988825      -0.64123867       1.42289727      -0.94524156       0.46724889
C        3.79857876       2.19864383       0.60927069      -3.37132432       1.22644912       1.95265270
C        2.02205588       3.89142634       0.61927809       1.37433913       1.01124699      -2.49330554
C       -4.03803775      -3.59575698      -0.21439872      -0.29041642       0.84109949       1.30669691
C       -3.89453266      -3.86160038       1.28235283       1.24412357      -2.82329960      -0.27355281
H       -0.34614590       1.17974987      -0.43565331       0.90438412       0.09293527      -0.47150048
H        3.42959072       6.21818115       1.91607609       0.89616100      -0.07334544      -0.26147861
H        5.18758537       6.03658726       2.29573133       0.07316224       0.31283598       0.20435036
H        4.62301113       5.83494951       0.62848004       0.14125788       0.41646094      -0.21383133
H       -2.90724752      -2.70162103      -1.81176160       0.03371534       0.21785317       0.25929458
H       -3.73482892      -1.50282047      -0.79588363       0.63286269      -0.84153873       0.04630449
H       -2.42157409      -3.72516344       2.75958588       0.26071818      -0.11398702       2.18454243
H       -1.92802284      -4.74811790       1.44413497       0.14505937      -1.45644586       0.27977283
H        3.55634930       4.00209167       2.73511603       0.44195422       0.04435658      -0.21107643
H        5.15051939       3.74349453       1.98781862      -0.30863627      -0.16297628      -0.27125548
H        3.22558763       0.39610143       0.12126603      -0.60848762      -1.51601069      -0.07069589
H        3.64154341       1.19864025      -1.34916494       0.31472051       0.36607704      -0.50235019
H        0.30511689       3.30358770      -0.65183220       0.77423781      -0.01982125      -0.13092607
H        1.88921918       3.60099770      -1.57933257      -0.67886678      -0.04964276       1.05906201
H        4.77764656       2.13789334       0.53331963       4.78085328      -0.34697989      -0.42492990
H        3.55938890       1.70417955       1.57683255      -0.12871652       0.58096057      -0.00844414
H        1.86064531       4.95755627       0.37338040       0.12527879      -0.26698223       0.80948294
H        1.58680203       3.60885837       1.54698148      -0.80605061      -0.35364653       0.75050278
H       -3.84355209      -4.52902029      -0.65079365       0.45580848      -1.10333852      -1.13695557
H       -5.08601425      -3.38707302      -0.35675112      -0.31942650       0.14192468      -0.51048142
H       -4.35012434      -3.15046332       1.87658062      -1.35182042       1.51626847       1.01217192
H       -4.33451984      -4.91532323       1.56699171       0.64851205       2.09912097      -0.58905017
28
Properties=species:S:1:pos:R:3:REF_forces:R:3 smiles="[H:11][C:4]1([C:5]([C:3]([N:1]([C:2]1([H:7])[H:8])[H:6])([H:9])[H:10])([H:13])[H:14])[H:12].[H:25][C:18]1([C:19]([C:17]([N:15]([C:16]1([H:21])[H:22])[H:20])([H:23])[H:24])([H:27])[H:28])[H:26]" total_charge=0 REF_energy=-11576.105427734596 config_type="DES370K Dimers" pbc="F F F"
N        1.21229005      -4.76958990       0.42605999      -2.33220655       1.58788504      -1.75639635
C        1.04874992      -3.46700001       1.10538995      -0.69422678       1.14576324       0.23130688
C        2.56965995      -5.16920995       0.52960998       1.41966524      -1.41338415       0.82815823
C        2.41593003      -3.05384016       1.49750996       0.98620889       1.49781596       2.69402012
C        3.38604975      -3.92518997       0.78470999       1.65182032       0.26892034      -1.03620614
H        1.09952998      -4.34948015      -0.50537997      -0.02563360      -1.50276674      -0.06606283
H        0.75240004      -2.65799999       0.41031000      -0.72337931      -0.84532199       0.05043727
H        0.38273001      -3.41320014       1.98798001       0.09331549      -0.51404742      -0.66589130
H        2.68859005      -5.78422022       1.44233000      -0.14836653      -0.08787309      -0.46861904
H        2.87678003      -5.78787040      -0.33548999      -0.15332649       0.41956856       0.49112531
H        2.58106995      -1.97171998       1.33266997       0.04943983      -0.60469284       0.21864707
H        2.48267984      -3.24247980       2.58628010       0.39000904       0.29105562      -0.38006457
H        4.30046987      -4.12845993       1.37459994      -0.45522047       0.15831799      -0.40333726
H        3.69491005      -3.42493010      -0.15327000      -0.05806101      -0.39870468       0.26185733
N       -3.28404999       3.03790998      -4.85683012      -0.43604791       0.97213434      -0.88945455
C       -2.91433001       3.70788002      -3.61779976       0.23576796       1.81303852      -1.03192870
C       -4.07124996       1.88897002      -4.45675993       0.22628935      -1.35561416       0.09480674
C       -2.48898005       2.58151006      -2.77977991       1.10840872      -1.30120145       2.55008352
C       -3.28233981       1.37920999      -3.19465994      -1.19806339      -1.29258365      -0.69733117
H       -3.82937002       3.67184019      -5.45477962       0.47249065      -0.51031902       0.29301389
H       -2.04595995       4.38535976      -3.72915006      -0.61936766      -0.07725775      -0.34239847
H       -3.77920008       4.31939030      -3.29607009       0.40010753      -0.37768756       0.66195867
H       -5.12413978       2.07080006      -4.16727018       0.34185846       0.30606648      -0.14624307
H       -4.07350015       1.17874002      -5.30589008      -0.12853506       0.14402872       0.62850010
H       -1.43461001       2.28268004      -2.93619013      -0.37641664       0.87742953       0.08871658
H       -2.64313006       2.71490002      -1.69170999       0.35322671       0.35812730      -0.56152630
H       -3.95385003       1.04998994      -2.37849998       0.19361207       0.04849652      -0.66408049
H       -2.60405016       0.53735000      -3.43268013      -0.57215831       0.39488780       0.01684737
36
Properties=species:S:1:pos:R:3:REF_forces:R:3 smiles="[H:22][c:7]1[c:10]([c:14]([c:18]([c:15]([c:11]1[H:26])[H:30])[C:5]2=[C:6]([O:3][c:17]3[c:13]([c:9]([c:8]([c:12]([c:16]3[O:2]2)[H:27])[H:23])[H:24])[H:28])[C:21]([H:35])([H:36])[N:19]([H:31])[C:4](=[O:1])[C:20]([H:32])([H:33])[H:34])[H:29])[H:25]" total_charge=0 REF_energy=-25521.359930795603 config_type=PubChem pbc="F F F"
O        4.43945124      -0.15258042       0.59261206      -0.18650497       1.39209428       0.58945698
O       -1.44364235       0.61095039       0.02179857      -0.58734706      -0.09892208      -0.59160043
O       -0.01493517       1.56428506       2.27322771       0.71699364      -0.44153433      -0.85864778
C        4.14001348       0.95614153       1.05711915       0.05344421      -1.49042710      -0.78063373
C       -0.12544296       0.24967208       0.20322194       1.15898828       0.80908002       2.75337888
C        0.55062575       0.69250023       1.32222679      -1.00854165      -1.28966591      -1.60021534
C        1.18762906      -2.75894997      -2.56829856       0.82555120       0.50568744       0.22098432
C       -4.03954313       2.47014882       1.82086851       0.40435676       0.67716448       1.24234763
C       -3.27876136       3.04175141       2.87201455       0.03794813      -0.78981615      -1.30810129
C        2.06837167      -1.72237680      -2.23182246      -0.79567855       0.61315512       0.61521426
C       -0.09105162      -2.75519560      -2.06189392      -1.08001528       0.21746113       0.71230275
C       -3.41274402       1.63338806       0.91242798      -0.36893915      -0.00586748      -0.54894044
C       -1.90916918       2.77792790       2.98113491      -0.79735017      -0.66320181      -1.05459956
C        1.64863135      -0.67993245      -1.36015818      -0.37660714      -1.47900071      -0.27467415
C       -0.53066263      -1.76807187      -1.15229426       1.53364019      -0.33032867      -0.85387094
C       -2.07205579       1.36675867       0.99248039       1.55178129       0.19798723       1.22609873
C       -1.32887957       1.88704993       2.07004323      -0.64340817       0.52084342       0.07298682
C        0.37525825      -0.76793799      -0.75506816      -0.38109115       0.34972430      -0.74816976
N        2.91931059       1.15789422       1.64759829       0.92930818      -0.32800335      -0.41679527
C        5.07427885       2.17035701       0.94613641      -0.23311343      -0.77350648      -0.48403417
C        1.87599291       0.14517351       1.76045754       0.18773385      -0.07021679       0.23394040
H        1.52431657      -3.57312248      -3.20814345      -0.12402160       0.29328680       0.08826203
H       -5.10156868       2.72391274       1.73606779       0.52132351      -0.28941847      -0.02184225
H       -3.74873922       3.68314531       3.57783987      -0.26086288       0.44409104       0.34172332
H        3.05669787      -1.73662207      -2.66112111       0.11715417       0.24155226       0.08372486
H       -0.76042364      -3.55594489      -2.36443183      -0.03271836       0.21039446       0.14424249
H       -3.93917987       1.19012769       0.08615732      -0.23814616      -0.00427724      -0.14363605
H       -1.30409131       3.27959682       3.70882084       0.21172780      -0.12619268       0.32655768
H        2.29153147       0.14955326      -1.11726020       0.13989027      -0.06669664      -0.01689900
H       -1.53059194      -1.74378131      -0.77672312      -0.32217019      -0.16777123       0.15004726
H        2.71444466       2.06015017       1.99674966      -0.19246266       0.67351137       0.27586777
H        4.49395182       3.00870135       0.58959782      -0.08142188       0.35544071      -0.04925084
H        5.46642496       2.41489818       1.92730190       0.23511347       0.02365082       0.00880993
H        5.87729980       1.95787885       0.20385920      -0.62569488       0.03972128       0.83735289
H        1.80172160      -0.17464928       2.81155517      -0.13214758       0.15610652      -0.24155168
H        2.17590978      -0.75241873       1.19627764      -0.15807302       0.69691790       0.06813878
17
Properties=species:S:1:pos:R:3:REF_forces:R:3 smiles="[H:8][C:3]([H:9])([H:10])[O:1][C:4]([H:11])([H:12])[C:5]([H:13])([H:14])[N:2]([H:6])[H:7].[H:16][O:15][H:17]" total_charge=0 REF_energy=-8879.62988988677 config_type="DES370K Dimers" pbc="F F F"
O        0.72732001      -0.71818000       1.03014004      -1.60540619       1.30236411      -0.55650940
N        0.33115000      -2.27382993       3.49079990      -0.08207126       1.80939404       0.64971283
C        0.00000000       0.00000000       0.00000000       1.46610166       0.34375163      -0.13960065
C        0.39043998      -2.06853008       1.01696003       0.30585578      -0.27632139      -0.12396640
C        0.93680000      -2.70096016       2.27818990       0.06152685      -2.59031047      -1.20665578
H        0.66435003      -1.30347991       3.50038004      -0.67746820      -0.15096895       0.84831891
H       -0.69066000      -2.22304010       3.41333985       0.55562340      -0.07763160      -0.06459596
H        0.53084004      -0.23538001      -0.93777001      -0.43529847       0.25770524       0.03227231
H        0.11961000       1.07591009       0.21146000      -0.05192185      -0.53832120      -0.08157625
H       -1.07298004      -0.21389000      -0.13989000       0.40449480      -0.33654922       0.60341611
H       -0.70595002      -2.22068000       1.03183007       0.23549403       0.15373701      -0.08510853
H        0.78112996      -2.52593016       0.08766000      -0.07455899      -0.13595297       0.36794641
H        2.03554010      -2.63704014       2.39706993      -0.59378519       0.10190157      -0.36142168
H        0.67454004      -3.76775002       2.14169001       0.50568066       0.13952844       0.10384203
O        1.91079008      -0.37930998      -3.95923996      -1.11491320       0.00905488      -0.83990746
H        1.46969008       0.40300000      -4.36135006       0.51558874      -0.98353409       0.46088621
H        1.41302002      -1.15225005      -4.30999994       0.58650509       0.97278594       0.39256890
17
Properties=species:S:1:pos:R:3:REF_forces:R:3 smiles="[H:5][C:1]([H:6])([H:7])[C:3]([H:11])([H:12])[C:4]([H:13])([H:14])[C:2]([H:8])([H:9])[H:10].[H:16][O:15][H:17]" total_charge=0 REF_energy=-6395.158795024458 config_type="DES370K Dimers" pbc="F F F"
C        0.00000000       0.00000000       0.00000000       0.21330557      -0.59463241      -0.11253755
C       -2.07708001      -2.19121003      -2.59104013       0.56089833      -0.56753859       0.34128470
C       -1.11572004      -0.40893000      -0.96350002      -0.23668383      -1.13914270      -0.57407879
C       -0.81376004      -1.77006006      -1.77967000      -0.56543806       1.96911467      -0.59695756
H        0.93011999      -0.07308000      -0.58834004      -0.11215783       0.14843178       0.51089661
H        0.05209000      -0.72265995       0.83166003       0.14865131       0.34914007      -0.27389734
H       -0.07074000       1.01686001       0.42142001      -0.18372073      -0.45927466      -0.29865359
H       -2.47715997      -1.35475993      -3.18845010       0.28061328      -0.29703798       0.31345754
H       -2.89176988      -2.60225010      -1.97141004       0.40390555       0.20284704      -0.17831673
H       -1.72662997      -2.97888994      -3.27903986      -0.52282850       0.23891569       0.11554967
H       -2.09485983      -0.58086997      -0.47650999       0.52152361       0.35400417       0.00509217
H       -1.24475002       0.40770000      -1.69965994      -0.11466083      -0.55955521       0.21352832
H       -0.10594000      -1.48879003      -2.58298993       0.12884242      -0.20907477       0.62999098
H       -0.35292000      -2.59096002      -1.19725001      -0.52815531       0.55000337      -0.08331951
O       -3.46262002      -4.58780002       0.66991996      -0.00450478      -0.60456748       1.24660306
H       -2.81343007      -4.47426987       1.40061998      -0.81900566      -0.16717195      -0.86952007
H       -4.12014007      -5.23075008       1.01997996       0.82912783       0.78555541      -0.38921713
