1
Lattice="2.89172723 0.0 -1.02237997 -1.44586362 2.50430924 -1.02237997 0.0 0.0 3.0671399" Properties=species:S:1:pos:R:3:forces:R:3 bandgap=0.07559999999999967 e_per_atom_relaxed=-9.78103403 mp_id=mp-100 energy_per_atom=-9.77438391 ef_per_atom_relaxed=-9.78103403 corrected_total_energy=-9.77438391 ef_per_atom=0.1828008600000004 task_id=mp-100 calc_id=0 ionic_step=1 energy=-9.77438391 stress="-0.00032605263565708373 -0.0 -0.0 -0.0 -0.00032605263565708373 -0.0 -0.0 -0.0 -0.00032605263565708373" pbc="T T T"
Hf       0.00000000       0.00000000       0.00000000       0.00000000       0.00000000       0.00000000
1
Lattice="2.83612034 0.0 -1.00271996 -1.41806017 2.45615226 -1.00271996 0.0 0.0 3.00815989" Properties=species:S:1:pos:R:3:forces:R:3 e_per_atom_relaxed=-9.78103403 mp_id=mp-100 energy_per_atom=-9.74975437 ef_per_atom_relaxed=-9.78103403 corrected_total_energy=-9.74975437 ef_per_atom=0.2074303999999998 task_id=mp-100 calc_id=1 ionic_step=1 energy=-9.74975437 stress="-0.04060770274972172 -0.0 -0.0 -0.0 -0.04060770274972172 -0.0 -0.0 -0.0 -0.04060770274972172" pbc="T T T"
Hf       0.00000000       0.00000000       0.00000000       0.00000000       0.00000000       0.00000000
1
Lattice="2.94755266 0.0 -1.04211724 -1.47377633 2.55265548 -1.04211724 0.0 0.0 3.12635171" Properties=species:S:1:pos:R:3:forces:R:3 e_per_atom_relaxed=-9.78103403 mp_id=mp-100 energy_per_atom=-9.75183384 ef_per_atom_relaxed=-9.78103403 corrected_total_energy=-9.75183384 ef_per_atom=0.20535092999999982 task_id=mp-100 calc_id=1 ionic_step=0 energy=-9.75183384 stress="0.03331401494508689 -0.0 -0.0 -0.0 0.033314014951328394 -0.0 -0.0 -0.0 0.033314014951328394" pbc="T T T"
Hf       0.00000000       0.00000000       0.00000000       0.00000000       0.00000000       0.00000000
1
Lattice="-1.770814 1.770814 1.770814 1.770814 -1.770814 1.770814 1.770814 1.770814 -1.770814" Properties=species:S:1:pos:R:3:forces:R:3:magmoms:R:1 bandgap=0.0 e_per_atom_relaxed=-9.78103403 mp_id=mp-100 energy_per_atom=-9.77664167 ef_per_atom_relaxed=-9.78103403 corrected_total_energy=-9.77664167 ef_per_atom=0.1805430999999995 task_id=mp-910445 calc_id=0 ionic_step=0 energy=-9.77664167 stress="-0.0003255786055219912 -0.0 -0.0 -0.0 -0.0003255786055219912 -0.0 -0.0 -0.0 -0.0003255786055219912" pbc="T T T"
Hf       0.00000000       0.00000000       0.00000000       0.00000000       0.00000000       0.00000000       0.00000000
1
Lattice="-1.770814 1.770814 1.770814 1.770814 -1.770814 1.770814 1.770814 1.770814 -1.770814" Properties=species:S:1:pos:R:3:forces:R:3:magmoms:R:1 bandgap=0.0 e_per_atom_relaxed=-9.78103403 mp_id=mp-100 energy_per_atom=-9.78103403 ef_per_atom_relaxed=-9.78103403 corrected_total_energy=-9.78103403 ef_per_atom=0.17615073999999886 task_id=mp-1794749 calc_id=0 ionic_step=0 energy=-9.78103403 stress="-0.0003103873465284309 -0.0 -0.0 -0.0 -0.0003103873465284309 -0.0 -0.0 -0.0 -0.0003103873465284309" pbc="T T T"
Hf       0.00000000       0.00000000       0.00000000      -0.00000000       0.00000000       0.00000000      -0.00100000
6
Lattice="1.693339 -2.93295 0.0 1.693339 2.93295 0.0 0.0 0.0 11.787358" Properties=species:S:1:pos:R:3:forces:R:3:magmoms:R:1 bandgap=0.0 e_per_atom_relaxed=-9.212826796666667 mp_id=mp-10000 energy_per_atom=-9.212415483333334 ef_per_atom_relaxed=-9.212826796666667 corrected_total_energy=-55.2744929 ef_per_atom=-1.1954756810416662 task_id=mp-909950 calc_id=0 ionic_step=0 energy=-54.2684929 stress="0.00048111147672040734 -0.0 -0.0 -0.0 0.0004811117451052997 -0.0 -0.0 -0.0 -0.0009481820545112276" pbc="T T T"
Hf       1.69333900      -0.97765196      10.60299963       0.00000000       0.00000000      -0.05840721       0.00000000
Hf       1.69333900       0.97765196       4.70932063       0.00000000       0.00000000      -0.05840721       0.00000000
Hf       1.69333900      -0.97765196       7.07803737       0.00000000       0.00000000       0.05840721       0.00000000
Hf       1.69333900       0.97765196       1.18435837       0.00000000       0.00000000       0.05840721       0.00000000
S        0.00000000       0.00000000       8.84051850       0.00000000       0.00000000       0.00000000       0.00000000
S        0.00000000       0.00000000       2.94683950       0.00000000       0.00000000       0.00000000       0.00000000
6
Lattice="3.39554166 0.0 0.0 -1.69777083 2.94062534 0.0 0.0 0.0 11.83131817" Properties=species:S:1:pos:R:3:forces:R:3 e_per_atom_relaxed=-9.212826796666667 mp_id=mp-10000 energy_per_atom=-9.211175036666667 ef_per_atom_relaxed=-9.212826796666667 corrected_total_energy=-55.26705022 ef_per_atom=-1.1942352343750002 task_id=mp-10000 calc_id=1 ionic_step=1 energy=-54.26105022 stress="0.006745257351591984 -0.0 -0.0 -0.0 0.006745257351591984 -0.0 -0.0 -0.0 0.009205004878073927" pbc="T T T"
S        0.00000000       0.00000000       8.87348863       0.00000000       0.00000000       0.00000000
S        0.00000000       0.00000000       2.95782954       0.00000000       0.00000000       0.00000000
Hf       1.69777085       0.98020844      10.64217214       0.00000000       0.00000000       0.01480206
Hf      -0.00000002       1.96041690       4.72651305       0.00000000       0.00000000       0.01480206
Hf       1.69777085       0.98020844       7.10480512       0.00000000       0.00000000      -0.01480206
Hf      -0.00000002       1.96041690       1.18914603       0.00000000       0.00000000      -0.01480206
6
Lattice="3.3736 0.0 0.0 -1.6868 2.9216233 0.0 0.0 0.0 11.7882" Properties=species:S:1:pos:R:3:forces:R:3 e_per_atom_relaxed=-9.212826796666667 mp_id=mp-10000 energy_per_atom=-9.211417611666668 ef_per_atom_relaxed=-9.212826796666667 corrected_total_energy=-55.26850567 ef_per_atom=-1.1944778093750004 task_id=mp-10000 calc_id=1 ionic_step=0 energy=-54.26250567 stress="-0.006961949572345178 -0.0 -0.0 -0.0 -0.006961949572345178 -0.0 -0.0 -0.0 -0.0039153245706879305" pbc="T T T"
S        0.00000000       0.00000000       8.84115000       0.00000000       0.00000000       0.00000000
S        0.00000000       0.00000000       2.94705000       0.00000000       0.00000000       0.00000000
Hf       1.68680002       0.97387442      10.60112826       0.00000000       0.00000000       0.04683551
Hf      -0.00000002       1.94774888       4.70702826       0.00000000       0.00000000       0.04683551
Hf       1.68680002       0.97387442       7.08117174       0.00000000       0.00000000      -0.04683551
Hf      -0.00000002       1.94774888       1.18707174       0.00000000       0.00000000      -0.04683551
6
Lattice="1.693339 -2.93295 0.0 1.693339 2.93295 0.0 0.0 0.0 11.787358" Properties=species:S:1:pos:R:3:forces:R:3:magmoms:R:1 bandgap=0.0 e_per_atom_relaxed=-9.212826796666667 mp_id=mp-10000 energy_per_atom=-9.212821940000001 ef_per_atom_relaxed=-9.212826796666667 corrected_total_energy=-55.27693164 ef_per_atom=-1.1958821377083333 task_id=mp-1434887 calc_id=0 ionic_step=0 energy=-54.27093164 stress="-7.342129979481473e-05 0.0 0.0 0.0 -7.342134348537862e-05 -0.0 0.0 -0.0 0.0005946779322770655" pbc="T T T"
Hf       1.69333900      -0.97765196      10.60299963      -0.00000000      -0.00000000       0.02432714       0.00000000
Hf       1.69333900       0.97765196       4.70932063       0.00000000       0.00000000       0.02432714      -0.00000000
Hf       1.69333900      -0.97765196       7.07803737       0.00000000      -0.00000000      -0.02432714      -0.00000000
Hf       1.69333900       0.97765196       1.18435837       0.00000000       0.00000000      -0.02432714       0.00000000
S        0.00000000       0.00000000       8.84051850      -0.00000000      -0.00000000       0.00000000      -0.00000000
S        0.00000000       0.00000000       2.94683950      -0.00000000      -0.00000000       0.00000000       0.00000000
16
Lattice="4.57949158 0.0 1.59595068 2.28974579 6.96854132 0.79797534 -0.00351661 0.0 7.37836406" Properties=species:S:1:pos:R:3:forces:R:3 bandgap=0 e_per_atom_relaxed=-9.8374714475 mp_id=mp-10004 energy_per_atom=-9.8373943525 ef_per_atom_relaxed=-9.8374714475 corrected_total_energy=-157.39830964 ef_per_atom=-0.3498465321428572 task_id=mp-10004 calc_id=0 ionic_step=1 energy=-157.39830964 stress="9.161626633067894e-05 -0.0 2.3059879616488286e-07 -0.0 9.095457274069842e-05 -0.0 2.3059879616488286e-07 -0.0 9.103493841220331e-05" pbc="T T T"
P        1.62101142       2.03208456       2.71687137      -0.00004361       0.00013250       0.00012512
P        2.95496355       2.03208456       6.25744337       0.00004361       0.00013250      -0.00012512
P        3.91075721       4.93645676       3.51484671      -0.00004361      -0.00013250       0.00012512
P        5.24470934       4.93645676       7.05541871       0.00004361      -0.00013250      -0.00012512
Mo       2.15185799       0.00000000       5.16312729       0.00154290       0.00000000       0.00021849
Mo       5.63568857       4.16738715       1.96403484      -0.00144370      -0.00030143      -0.00050313
Mo       3.34594283       2.80115417       1.16605952      -0.00144370       0.00030143      -0.00050313
Mo       0.31172294       0.00000000       3.07501911       0.00134451       0.00000000       0.00078777
Mo       3.09979378       4.49636084       5.84186109      -0.00002670       0.00008114       0.00007662
Mo       1.47618119       4.49636084       3.13245365       0.00002670       0.00008114      -0.00007662
Mo       0.81004799       2.47218048       5.04388575      -0.00002670      -0.00008114       0.00007662
Mo       3.76592698       2.47218048       3.93042899       0.00002670      -0.00008114      -0.00007662
Mo       3.09199884       0.00000000       2.44584757       0.00044309       0.00000000       0.00012488
Mo       1.06228719       1.29207286       0.37020659      -0.00043391      -0.00002789      -0.00015122
Mo       3.35203303       5.67646846       1.16818195      -0.00043391       0.00002789      -0.00015122
Mo       3.93889328       0.00000000       7.38400465       0.00042473       0.00000000       0.00017756
16
Lattice="4.57837207 0.0 1.59556053 2.28918603 6.96813093 0.79778027 -0.00394131 0.0 7.37778145" Properties=species:S:1:pos:R:3:forces:R:3 e_per_atom_relaxed=-9.8374714475 mp_id=mp-10004 energy_per_atom=-9.837233895625 ef_per_atom_relaxed=-9.8374714475 corrected_total_energy=-157.39574233 ef_per_atom=-0.3496860752678561 task_id=mp-10004 calc_id=1 ionic_step=12 energy=-157.39574233 stress="-0.0005381203475366554 -0.0 -2.8705349586886193e-05 -0.0 -0.000455751944274033 -0.0 -2.8705349586886193e-05 -0.0 -0.00046575574771987087" pbc="T T T"
P        1.62070648       2.03131023       2.71594510      -0.00190609       0.00579203       0.00546941
P        2.95372427       2.03131023       6.25739688       0.00190609       0.00579203      -0.00546941
P        3.90989252       4.93682070       3.51372537      -0.00190609      -0.00579203       0.00546941
P        5.24291031       4.93682070       7.05517715       0.00190609      -0.00579203      -0.00546941
Mo       2.14839840       0.00000000       5.16339862       0.01548916       0.00000000      -0.01215078
Mo       5.63645020       4.16878188       1.96430027      -0.01003575      -0.01657127      -0.00349746
Mo       3.34726416       2.79934905       1.16652000      -0.01003575       0.01657127      -0.00349746
Mo       0.30987610       0.00000000       3.07246389       0.00458235       0.00000000       0.01914569
Mo       3.09893078       4.49558137       5.84073489      -0.00133736       0.00406383       0.00383747
Mo       1.47549997       4.49558137       3.13260710       0.00133736       0.00406383      -0.00383747
Mo       0.80974475       2.47254956       5.04295462      -0.00133736      -0.00406383       0.00383747
Mo       3.76468601       2.47254956       3.93038736       0.00133736      -0.00406383      -0.00383747
Mo       3.09067478       0.00000000       2.44554523       0.00427875       0.00000000      -0.00106706
Mo       1.06244239       1.29222309       0.37026068      -0.00348377      -0.00241571      -0.00121409
Mo       3.35162838       5.67590784       1.16804093      -0.00348377       0.00241571      -0.00121409
Mo       3.93724331       0.00000000       7.38283594       0.00268879       0.00000000       0.00349524
16
Lattice="4.57674241 0.0 1.5949926 2.28837121 6.97104254 0.7974963 -0.00571432 0.0 7.38024692" Properties=species:S:1:pos:R:3:forces:R:3 e_per_atom_relaxed=-9.8374714475 mp_id=mp-10004 energy_per_atom=-9.837205333125 ef_per_atom_relaxed=-9.8374714475 corrected_total_energy=-157.39528533 ef_per_atom=-0.34965751276785717 task_id=mp-10004 calc_id=1 ionic_step=8 energy=-157.39528533 stress="-0.00021710421028757533 -0.0 -0.0003249156823547129 -0.0 0.0007152232313986841 -0.0 -0.0003249156823547129 -0.0 0.000601990265916131" pbc="T T T"
P        1.61975298       2.03173161       2.71605905      -0.00198161       0.00602152       0.00568612
P        2.95127511       2.03173161       6.25918047       0.00198161       0.00602152      -0.00568612
P        3.90812419       4.93931093       3.51355535      -0.00198161      -0.00602152       0.00568612
P        5.23964632       4.93931093       7.05667677       0.00198161      -0.00602152      -0.00568612
Mo       2.14437407       0.00000000       5.16339795       0.02671984       0.00000000      -0.00206038
Mo       5.63677959       4.17010560       1.96441506      -0.02318583      -0.01073879      -0.00808025
Mo       3.34840839       2.80093694       1.16691876      -0.02318583       0.01073879      -0.00808025
Mo       0.30657966       0.00000000       3.07299664       0.01965183       0.00000000       0.01822089
Mo       3.09677554       4.49717848       5.84167511      -0.00145926       0.00443427       0.00418727
Mo       1.47425256       4.49717848       3.13356441       0.00145926       0.00443427      -0.00418727
Mo       0.80840433       2.47386406       5.04417881      -0.00145926      -0.00443427       0.00418727
Mo       3.76262376       2.47386406       3.93106071       0.00145926      -0.00443427      -0.00418727
Mo       3.08906848       0.00000000       2.44449538      -0.00291157       0.00000000       0.01268094
Mo       1.06257128       1.29176032       0.37030560      -0.00134445       0.01293277      -0.00046854
Mo       3.35094249       5.67928222       1.16780190      -0.00134445      -0.01293277      -0.00046854
Mo       3.93355946       0.00000000       7.38512555       0.00560047       0.00000000      -0.01174386
16
Lattice="4.57242234 0.0 1.59348705 2.28621117 6.97272651 0.79674353 -0.00842853 0.0 7.38108432" Properties=species:S:1:pos:R:3:forces:R:3 e_per_atom_relaxed=-9.8374714475 mp_id=mp-10004 energy_per_atom=-9.837115108125 ef_per_atom_relaxed=-9.8374714475 corrected_total_energy=-157.39384173 ef_per_atom=-0.34956728776785617 task_id=mp-10004 calc_id=1 ionic_step=7 energy=-157.39384173 stress="-0.0016438460877583666 -0.0 -0.0008010737726026367 -0.0 0.0006547904808872868 -0.0 -0.0008010737726026367 -0.0 0.00037561664687099644" pbc="T T T"
P        1.61757466       2.03178717       2.71535874      -0.00101728       0.00309122       0.00291903
P        2.94641915       2.03178717       6.25921263       0.00101728       0.00309122      -0.00291903
P        3.90378583       4.94093934       3.51210227      -0.00101728      -0.00309122       0.00291903
P        5.23263032       4.94093934       7.05595616       0.00101728      -0.00309122      -0.00291903
Mo       2.13768711       0.00000000       5.16050792       0.04313766       0.00000000       0.01995419
Mo       5.63500032       4.16957715       1.96379498      -0.04466682       0.00464664      -0.01556636
Mo       3.34878915       2.80314936       1.16705146      -0.04466682      -0.00464664      -0.01556636
Mo       0.30115074       0.00000000       3.07344759       0.04619597       0.00000000       0.01117854
Mo       3.09217833       4.49802060       5.84096477      -0.00075674       0.00229950       0.00217141
Mo       1.47181548       4.49802060       3.13360660       0.00075674       0.00229950      -0.00217141
Mo       0.80596716       2.47470591       5.04422125      -0.00075674      -0.00229950       0.00217141
Mo       3.75802665       2.47470591       3.93035013       0.00075674      -0.00229950      -0.00217141
Mo       3.08552586       0.00000000       2.44169478      -0.01740409       0.00000000       0.03776189
Mo       1.06228048       1.29028156       0.37020425       0.00378446       0.04138600       0.00131888
Mo       3.34849165       5.68244495       1.16694778       0.00378446      -0.04138600       0.00131888
Mo       3.92632934       0.00000000       7.38595514       0.00983517       0.00000000      -0.04039965
16
Lattice="4.57645194 0.0 1.59489137 2.28822597 6.96945771 0.79744568 -0.005338 0.0 7.37869975" Properties=species:S:1:pos:R:3:forces:R:3 e_per_atom_relaxed=-9.8374714475 mp_id=mp-10004 energy_per_atom=-9.837064736875 ef_per_atom_relaxed=-9.8374714475 corrected_total_energy=-157.39303579 ef_per_atom=-0.34951691651785666 task_id=mp-10004 calc_id=1 ionic_step=4 energy=-157.39303579 stress="-9.781312994178477e-05 -0.0 -5.252945830527501e-05 -0.0 5.291723078424788e-05 -0.0 -5.252945830527501e-05 -0.0 3.461074096332239e-05" pbc="T T T"
P        1.62010267       2.03022770       2.71458829      -0.00317002       0.00963274       0.00909619
P        2.95101127       2.03022770       6.25900283       0.00317002       0.00963274      -0.00909619
P        3.90832864       4.93923001       3.51203397      -0.00317002      -0.00963274       0.00909619
P        5.23923724       4.93923001       7.05644851       0.00317002      -0.00963274      -0.00909619
Mo       2.13938750       0.00000000       5.15608745       0.05117860       0.00000000       0.05784817
Mo       5.64291693       4.16484332       1.96655392      -0.06361276       0.03778373      -0.02216902
Mo       3.35469100       2.80461439       1.16910825      -0.06361276      -0.03778373      -0.02216902
Mo       0.29879641       0.00000000       3.07417855       0.07604693       0.00000000      -0.01351013
Mo       3.09699506       4.49562876       5.84011048      -0.00175908       0.00534533       0.00504759
Mo       1.47411888       4.49562876       3.13348063       0.00175908       0.00534533      -0.00504759
Mo       0.80876909       2.47382895       5.04266480      -0.00175908      -0.00534533       0.00504759
Mo       3.76234485       2.47382895       3.93092632       0.00175908      -0.00534533      -0.00504759
Mo       3.08678736       0.00000000       2.44193972       0.01587696       0.00000000       0.02468211
Mo       1.06510908       1.29009771       0.37119002      -0.02182766       0.01808238      -0.00760693
Mo       3.35333505       5.67936000       1.16863570      -0.02182766      -0.01808238      -0.00760693
Mo       3.93056037       0.00000000       7.38416273       0.02777835       0.00000000      -0.00946825
16
Lattice="4.58141158 0.0 1.5966198 2.29070579 6.96543447 0.7983099 -0.00153418 0.0 7.37576482" Properties=species:S:1:pos:R:3:forces:R:3 e_per_atom_relaxed=-9.8374714475 mp_id=mp-10004 energy_per_atom=-9.836870260625 ef_per_atom_relaxed=-9.8374714475 corrected_total_energy=-157.38992417 ef_per_atom=-0.34932244026785675 task_id=mp-10004 calc_id=1 ionic_step=3 energy=-157.38992417 stress="0.0017129013832630259 -0.0 0.000838727136917663 -0.0 -0.0006937794095665786 -0.0 0.000838727136917663 -0.0 -0.0004014833893149766" pbc="T T T"
P        1.62321399       2.02830875       2.71364044      -0.00580801       0.01764881       0.01666576
P        2.95666341       2.02830875       6.25874418       0.00580801       0.01764881      -0.01666576
P        3.91391978       4.93712572       3.51195034      -0.00580801      -0.01764881       0.01666576
P        5.24736920       4.93712572       7.05705408       0.00580801      -0.01764881      -0.01666576
Mo       2.14147543       0.00000000       5.15064728       0.06026539       0.00000000       0.10815377
Mo       5.65266502       4.15901906       1.96995113      -0.08734831       0.08229692      -0.03044085
Mo       3.36195923       2.80641541       1.17164123      -0.08734831      -0.08229692      -0.03044085
Mo       0.29589509       0.00000000       3.07507469       0.11443123       0.00000000      -0.04727208
Mo       3.10292340       4.49268517       5.83905928      -0.00277663       0.00843735       0.00796738
Mo       1.47695400       4.49268517       3.13332534       0.00277663       0.00843735      -0.00796738
Mo       0.81221761       2.47274930       5.04074938      -0.00277663      -0.00843735       0.00796738
Mo       3.76765979       2.47274930       3.93163524       0.00277663      -0.00843735      -0.00796738
Mo       3.08833737       0.00000000       2.44223989       0.05971341       0.00000000       0.00762594
Mo       1.06859325       1.28987107       0.37240425      -0.05561634      -0.01244979      -0.01938227
Mo       3.35929908       5.67556340       1.17071416      -0.05561634       0.01244979      -0.01938227
Mo       3.93576507       0.00000000       7.38195602       0.05151926       0.00000000       0.03113859
16
Lattice="4.63950661 0.0 1.61686589 2.3197533 7.06533558 0.80843294 -0.00536291 0.0 7.48022441" Properties=species:S:1:pos:R:3:forces:R:3 e_per_atom_relaxed=-9.8374714475 mp_id=mp-10004 energy_per_atom=-9.817413915 ef_per_atom_relaxed=-9.8374714475 corrected_total_energy=-157.07862264 ef_per_atom=-0.3298660946428562 task_id=mp-10004 calc_id=1 ionic_step=1 energy=-157.07862264 stress="0.06189577484315268 -0.0 0.0004622707324428335 -0.0 0.060569314731071626 -0.0 0.0004622707324428335 -0.0 0.060730415864772555" pbc="T T T"
P        1.64216596       2.05898610       2.75273208       0.01450634      -0.04408044      -0.04162513
P        2.99197774       2.05898610       6.34435821      -0.01450634      -0.04408044       0.04162513
P        3.96191926       5.00634948       3.56116503       0.01450634       0.04408044      -0.04162513
P        5.31173104       5.00634948       7.15279116      -0.01450634       0.04408044       0.04162513
Mo       2.16774276       0.00000000       5.22461026       0.10000445       0.00000000       0.21436013
Mo       5.72244792       4.22021799       1.99427043      -0.15578810       0.16950987      -0.05429208
Mo       3.40269462       2.84511759       1.18583749      -0.15578810      -0.16950987      -0.05429208
Mo       0.30051831       0.00000000       3.11767096       0.21157174       0.00000000      -0.10577597
Mo       3.13982892       4.55707376       5.92010747      -0.01146361       0.03483449       0.03289418
Mo       1.49431477       4.55707376       3.17698283       0.01146361       0.03483449      -0.03289418
Mo       0.82007562       2.50826182       5.11167452      -0.01146361      -0.03483449       0.03289418
Mo       3.81406808       2.50826182       3.98541577       0.01146361      -0.03483449      -0.03289418
Mo       3.12966851       0.00000000       2.47591583       0.01437959       0.00000000      -0.01840685
Mo       1.07936824       1.30806966       0.37615933      -0.00710224      -0.02211372      -0.00247513
Mo       3.39912155       5.75726592       1.18459227      -0.00710224       0.02211372      -0.00247513
Mo       3.98524531       0.00000000       7.48572170      -0.00017512       0.00000000       0.02335710
16
Lattice="4.55813274 0.0 1.58850713 2.27906637 6.92540381 0.79425357 0.0 0.0 7.33390757" Properties=species:S:1:pos:R:3:forces:R:3 e_per_atom_relaxed=-9.8374714475 mp_id=mp-10004 energy_per_atom=-9.833481875 ef_per_atom_relaxed=-9.8374714475 corrected_total_energy=-157.33571 ef_per_atom=-0.3459340546428571 task_id=mp-10004 calc_id=1 ionic_step=0 energy=-157.33571 stress="-0.02594030575683208 -0.0 0.0010475787364578675 -0.0 -0.028946274591650816 -0.0 0.0010475787364578675 -0.0 -0.02858119388681071" pbc="T T T"
P        1.61563015       2.01598505       2.69794685      -0.01515755       0.04605927       0.04349374
P        2.94250259       2.01598505       6.22446786       0.01515755       0.04605927      -0.04349374
P        3.89469652       4.90941876       3.49220041      -0.01515755      -0.04605927       0.04349374
P        5.22156896       4.90941876       7.01872142       0.01515755      -0.04605927      -0.04349374
Mo       2.13092706       0.00000000       5.12096990       0.04025638       0.00000000       0.06163837
Mo       5.62473580       4.13446607       1.96021780      -0.05505124       0.04495719      -0.01918533
Mo       3.34566943       2.79093774       1.16596424      -0.05505124      -0.04495719      -0.01918533
Mo       0.29399956       0.00000000       3.05802346       0.06984611       0.00000000      -0.02326771
Mo       3.08813493       4.46688546       5.80658397       0.00045276      -0.00137580      -0.00129917
Mo       1.46999781       4.46688546       3.11583074      -0.00045276      -0.00137580       0.00129917
Mo       0.80906856       2.45851835       5.01233040       0.00045276       0.00137580      -0.00129917
Mo       3.74906418       2.45851835       3.91008430      -0.00045276       0.00137580       0.00129917
Mo       3.07172565       0.00000000       2.42873464       0.08345358       0.00000000       0.01982090
Mo       1.06432399       1.28258479       0.37091642      -0.08057515      -0.00874669      -0.02808040
Mo       3.34339036       5.64281902       1.16516998      -0.08057515       0.00874669      -0.02808040
Mo       3.91589184       0.00000000       7.34035436       0.07769671       0.00000000       0.03633990
16
Lattice="-4.927503 4.927503 2.424809 4.927503 -4.927503 2.424809 4.927503 4.927503 -2.424809" Properties=species:S:1:pos:R:3:forces:R:3:magmoms:R:1 bandgap=0.0 e_per_atom_relaxed=-9.8374714475 mp_id=mp-10004 energy_per_atom=-9.837471285625 ef_per_atom_relaxed=-9.8374714475 corrected_total_energy=-157.39954057 ef_per_atom=-0.34992346526785667 task_id=mp-1775816 calc_id=0 ionic_step=0 energy=-157.39954057 stress="0.0005113364715002088 -0.0 -0.0 -0.0 0.0005113364715002088 -0.0 -0.0 -0.0 -0.0006335857712697939" pbc="T T T"
Mo       1.98071331       1.98071331       3.54330792      -0.03459537      -0.03459537       0.01298665      -0.00100000
Mo       1.98071331      -1.98071331       1.30631008      -0.03459537       0.03459537      -0.01298665      -0.00100000
Mo      -1.98071331       1.98071331       1.30631008       0.03459537      -0.03459537      -0.01298665      -0.00100000
Mo       2.94678969       2.94678969       1.11849892       0.03459537       0.03459537       0.01298665      -0.00100000
Mo       3.49619149       0.00000000       0.00000000       0.04375732      -0.00000000      -0.00000000       0.00000000
Mo       0.00000000       6.35881451       0.00000000      -0.00000000      -0.04375732      -0.00000000       0.00000000
Mo       0.00000000       3.49619149       0.00000000      -0.00000000       0.04375732      -0.00000000       0.00000000
Mo       6.35881451       0.00000000       0.00000000      -0.04375732      -0.00000000      -0.00000000       0.00000000
Mo       4.01387003       4.01387003      -1.29986009      -0.00659013      -0.00659013      -0.03538296      -0.00000000
Mo      -0.91363297       0.91363297       3.72466909      -0.00659013       0.00659013       0.03538296      -0.00000000
Mo       0.91363297      -0.91363297       3.72466909       0.00659013      -0.00659013       0.03538296      -0.00000000
Mo       0.91363297       0.91363297       1.12494891       0.00659013       0.00659013      -0.03538296      -0.00000000
P        2.05370441       4.92750300      -0.00000000      -0.02575753      -0.00000000      -0.00000000      -0.00000000
P        0.00000000       2.87379859       2.42480900      -0.00000000       0.02575753      -0.00000000      -0.00000000
P        4.92750300       2.05370441      -0.00000000      -0.00000000      -0.02575753      -0.00000000      -0.00000000
P        2.87379859       0.00000000       2.42480900       0.02575753      -0.00000000      -0.00000000      -0.00000000
4
Lattice="3.46309859 0.0 -0.86375273 -0.21543389 3.45639119 -0.86375273 0.60374777 0.64255047 9.79493092" Properties=species:S:1:pos:R:3:forces:R:3 bandgap=0 e_per_atom_relaxed=-3.1378211 mp_id=mp-10006 energy_per_atom=-3.1231248999999996 ef_per_atom_relaxed=-3.1378211 corrected_total_energy=-12.492499599999999 ef_per_atom=-0.25292894083333295 task_id=mp-10006 calc_id=0 ionic_step=9 energy=-11.6484996 stress="-6.819806167527371e-05 5.623418718656166e-06 2.1184799203381313e-05 5.623418718656166e-06 -6.749705906081838e-05 2.2546340728628862e-05 2.1184799203381313e-05 2.2546340728628862e-05 1.1455659608137007e-05" pbc="T T T"
Ag       2.84533936       1.18537303       4.03371273       0.00000000       0.00000000       0.00000000
Te       1.62733089       1.73191899       6.52456085       0.00081840       0.00087100       0.00328128
Te       2.22408158       2.36702267       1.54286461      -0.00081840      -0.00087100      -0.00328128
Tl       0.00000000       0.00000000       0.00000000       0.00000000       0.00000000       0.00000000
4
Lattice="3.48604339 0.0 -0.86947554 -0.21686125 3.47929155 -0.86947554 0.56853266 0.60507209 9.70259916" Properties=species:S:1:pos:R:3:forces:R:3 e_per_atom_relaxed=-3.1378211 mp_id=mp-10006 energy_per_atom=-3.1209946275 ef_per_atom_relaxed=-3.1378211 corrected_total_energy=-12.48397851 ef_per_atom=-0.2507986683333333 task_id=mp-10006 calc_id=0 ionic_step=3 energy=-11.63997851 stress="0.00025862440795890564 -5.0993560222595904e-05 -0.0001921051686837846 -5.0993560222595904e-05 0.0002522676368839947 -0.00020445171009700458 -0.0001921051686837846 -0.00020445171009700458 -0.00046368087659964444" pbc="T T T"
Ag       2.84458356       1.17235893       3.98182404       0.00000000       0.00000000       0.00000000
Te       1.61194672       1.71554608       6.46288025      -0.00472643      -0.00503020      -0.01894998
Te       2.22576808       2.36881756       1.50076783       0.00472643       0.00503020       0.01894998
Tl       0.00000000       0.00000000       0.00000000       0.00000000       0.00000000       0.00000000
4
Lattice="3.48907542 0.0 -0.87023178 -0.21704986 3.48231771 -0.87023178 0.56395292 0.60019801 9.6906937" Properties=species:S:1:pos:R:3:forces:R:3 e_per_atom_relaxed=-3.1378211 mp_id=mp-10006 energy_per_atom=-3.1198738374999997 ef_per_atom_relaxed=-3.1378211 corrected_total_energy=-12.479495349999999 ef_per_atom=-0.24967787833333302 task_id=mp-10006 calc_id=1 ionic_step=13 energy=-11.63549535 stress="0.00035247268788507344 -2.6137330589114542e-05 -9.846569844542323e-05 -2.6137330589114542e-05 0.000349214451600616 -0.00010479406441230227 -9.846569844542323e-05 -0.00010479406441230227 -1.775314882937031e-05" pbc="T T T"
Ag       2.84452056       1.17067843       3.97511507       0.00000000       0.00000000       0.00000000
Te       1.60870406       1.71209501       6.44987916       0.00156484       0.00166541       0.00627402
Te       2.22727442       2.37042071       1.50035098      -0.00156484      -0.00166541      -0.00627402
Tl       0.00000000       0.00000000       0.00000000       0.00000000       0.00000000       0.00000000
4
Lattice="3.4918826 0.0 -0.87093193 -0.21722449 3.48511945 -0.87093193 0.56515008 0.60147212 9.70147115" Properties=species:S:1:pos:R:3:forces:R:3 e_per_atom_relaxed=-3.1378211 mp_id=mp-10006 energy_per_atom=-3.1198743949999996 ef_per_atom_relaxed=-3.1378211 corrected_total_energy=-12.479497579999999 ef_per_atom=-0.24967843583333296 task_id=mp-10006 calc_id=1 ionic_step=12 energy=-11.63549758 stress="0.0008607251111375099 -2.2493525078405638e-05 -8.473859762864917e-05 -2.2493525078405638e-05 0.0008579211069211978 -9.018472628058461e-05 -8.473859762864917e-05 -9.018472628058461e-05 0.0005421124542226251" pbc="T T T"
Ag       2.84718087       1.17201592       3.97980364       0.00000000       0.00000000       0.00000000
Te       1.60980411       1.71326577       6.45428968       0.00276371       0.00294134       0.01108073
Te       2.23000408       2.37332580       1.50531761      -0.00276371      -0.00294134      -0.01108073
Tl       0.00000000       0.00000000       0.00000000       0.00000000       0.00000000       0.00000000
4
Lattice="3.49702815 0.0 -0.87221531 -0.21754459 3.49025504 -0.87221531 0.56085703 0.59690315 9.69521562" Properties=species:S:1:pos:R:3:forces:R:3 e_per_atom_relaxed=-3.1378211 mp_id=mp-10006 energy_per_atom=-3.119652845 ef_per_atom_relaxed=-3.1378211 corrected_total_energy=-12.47861138 ef_per_atom=-0.2494568858333334 task_id=mp-10006 calc_id=1 ionic_step=11 energy=-11.63461138 stress="0.0013915301353522283 -6.360778123769761e-06 -2.396260780589216e-05 -6.360778123769761e-06 0.0013907372140328765 -2.550267521666735e-05 -2.396260780589216e-05 -2.550267521666735e-05 0.0013014320100107654" pbc="T T T"
Ag       2.84881348       1.17101534       3.97539250       0.00000000       0.00000000       0.00000000
Te       1.60988019       1.71334673       6.45459469      -0.00365975      -0.00389496      -0.01467325
Te       2.23046040       2.37381146       1.49619031       0.00365975       0.00389496       0.01467325
Tl       0.00000000       0.00000000       0.00000000       0.00000000       0.00000000       0.00000000
4
Lattice="3.52031426 0.0 -0.87802325 -0.21899318 3.51349605 -0.87802325 0.54142888 0.57622636 9.66690632" Properties=species:S:1:pos:R:3:forces:R:3 e_per_atom_relaxed=-3.1378211 mp_id=mp-10006 energy_per_atom=-3.11718904 ef_per_atom_relaxed=-3.1378211 corrected_total_energy=-12.46875616 ef_per_atom=-0.2469930808333333 task_id=mp-10006 calc_id=1 ionic_step=9 energy=-11.62475616 stress="0.0036772421863565867 6.602273970717523e-05 0.00024872375793439115 6.602273970717523e-05 0.003685472464984305 0.0002647091615830923 0.00024872375793439115 0.0002647091615830923 0.004612430380060132" pbc="T T T"
Ag       2.85620184       1.16648719       3.95542991       0.00000000       0.00000000       0.00000000
Te       1.61021638       1.71370453       6.45594252      -0.03668815      -0.03904608      -0.14709611
Te       2.23253358       2.37601788       1.45491730       0.03668815       0.03904608       0.14709611
Tl       0.00000000       0.00000000       0.00000000       0.00000000       0.00000000       0.00000000
4
Lattice="3.52158219 0.0 -0.87833949 -0.21907206 3.51476152 -0.87833949 0.5237833 0.5574467 9.59885867" Properties=species:S:1:pos:R:3:forces:R:3 e_per_atom_relaxed=-3.1378211 mp_id=mp-10006 energy_per_atom=-3.1163014875 ef_per_atom_relaxed=-3.1378211 corrected_total_energy=-12.46520595 ef_per_atom=-0.24610552833333324 task_id=mp-10006 calc_id=1 ionic_step=8 energy=-11.62120595 stress="0.002293644072876987 2.3303267264852102e-05 8.778909776486984e-05 2.3303267264852102e-05 0.002296549021020392 9.343127845995841e-05 8.778909776486984e-05 9.343127845995841e-05 0.00262372645152007" pbc="T T T"
Ag       2.84831028       1.15741373       3.92108985       0.00000000       0.00000000       0.00000000
Te       1.60077321       1.70365445       6.41808149      -0.04245624      -0.04518489      -0.17022247
Te       2.22552022       2.36855377       1.42409820       0.04245624       0.04518489       0.17022247
Tl       0.00000000       0.00000000       0.00000000       0.00000000       0.00000000       0.00000000
4
Lattice="3.52221615 0.0 -0.87849761 -0.2191115 3.51539426 -0.87849761 0.51496051 0.54805687 9.56483485" Properties=species:S:1:pos:R:3:forces:R:3 e_per_atom_relaxed=-3.1378211 mp_id=mp-10006 energy_per_atom=-3.1155639525 ef_per_atom_relaxed=-3.1378211 corrected_total_energy=-12.46225581 ef_per_atom=-0.2453679933333334 task_id=mp-10006 calc_id=1 ionic_step=7 energy=-11.61825581 stress="0.0015825458611011083 2.110596270161228e-05 7.951130252817632e-05 2.110596270161228e-05 0.001585176894375015 8.462146946839283e-05 7.951130252817632e-05 8.462146946839283e-05 0.001881504155574806" pbc="T T T"
Ag       2.84436449       1.15287700       3.90391982       0.00000000       0.00000000       0.00000000
Te       1.59603954       1.69861655       6.39910251      -0.04638266      -0.04936366      -0.18596493
Te       2.22202562       2.36483458       1.40873712       0.04638266       0.04936366       0.18596493
Tl       0.00000000       0.00000000       0.00000000       0.00000000       0.00000000       0.00000000
4
Lattice="3.52525594 0.0 -0.87925578 -0.2193006 3.51842816 -0.87925578 0.47265626 0.50303375 9.40169466" Properties=species:S:1:pos:R:3:forces:R:3 e_per_atom_relaxed=-3.1378211 mp_id=mp-10006 energy_per_atom=-3.1110528975 ef_per_atom_relaxed=-3.1378211 corrected_total_energy=-12.44421159 ef_per_atom=-0.24085693833333335 task_id=mp-10006 calc_id=1 ionic_step=6 energy=-11.60021159 stress="-0.0020362253309944194 1.2260964081594967e-05 4.619003238422489e-05 1.2260964081594967e-05 -0.002034696903998164 4.915865640373224e-05 4.619003238422489e-05 4.915865640373224e-05 -0.0018625532361781422" pbc="T T T"
Ag       2.82544493       1.13112391       3.82159155       0.00000000       0.00000000       0.00000000
Te       1.57331313       1.67442952       6.30798414      -0.06036672      -0.06424647      -0.24203211
Te       2.20529847       2.34703239       1.33519896       0.06036672       0.06424647       0.24203211
Tl       0.00000000       0.00000000       0.00000000       0.00000000       0.00000000       0.00000000
4
Lattice="3.47710578 0.0 -0.86724635 -0.21630525 3.47037126 -0.86724635 0.53041971 0.56450964 9.53075887" Properties=species:S:1:pos:R:3:forces:R:3 e_per_atom_relaxed=-3.1378211 mp_id=mp-10006 energy_per_atom=-3.1113791849999997 ef_per_atom_relaxed=-3.1378211 corrected_total_energy=-12.445516739999999 ef_per_atom=-0.241183225833333 task_id=mp-10006 calc_id=1 ionic_step=5 energy=-11.60151674 stress="-0.0038377697815424276 5.731056040135672e-05 0.00021590285085253445 5.731056040135672e-05 -0.00383062554422714 0.000229778867835543 0.00021590285085253445 0.000229778867835543 -0.003025986446849543" pbc="T T T"
Ag       2.81896288       1.14984763       3.89813308       0.00000000       0.00000000       0.00000000
Te       1.59926012       1.70204412       6.41201498      -0.07305911      -0.07775460      -0.29292052
Te       2.19196012       2.33283678       1.38425119       0.07305911       0.07775460       0.29292052
Tl       0.00000000       0.00000000       0.00000000       0.00000000       0.00000000       0.00000000
4
Lattice="3.71509624 0.0 -0.92660502 -0.23111026 3.70790077 -0.92660502 0.2449139 0.26065445 8.89283677" Properties=species:S:1:pos:R:3:forces:R:3 e_per_atom_relaxed=-3.1378211 mp_id=mp-10006 energy_per_atom=-3.1037687574999997 ef_per_atom_relaxed=-3.1378211 corrected_total_energy=-12.415075029999999 ef_per_atom=-0.23357279833333303 task_id=mp-10006 calc_id=1 ionic_step=4 energy=-11.57107503 stress="0.004033638736266847 -0.000380536322952691 -0.0014335730594128514 -0.000380536322952691 0.003986201737740399 -0.0015257083946084754 -0.0014335730594128514 -0.0015257083946084754 -0.0013565203247784155" pbc="T T T"
Ag       2.85100157       1.05730242       3.51981337       0.00000000       0.00000000       0.00000000
Te       1.47102039       1.56556245       5.89785537      -0.02090419      -0.02224769      -0.08381248
Te       2.25787949       2.40299277       1.14177136       0.02090419       0.02224769       0.08381248
Tl       0.00000000       0.00000000       0.00000000       0.00000000       0.00000000       0.00000000
4
Lattice="3.83409147 0.0 -0.95628435 -0.23851277 3.82666553 -0.95628435 0.10216099 0.10872685 8.57387572" Properties=species:S:1:pos:R:3:forces:R:3 e_per_atom_relaxed=-3.1378211 mp_id=mp-10006 energy_per_atom=-3.086047635 ef_per_atom_relaxed=-3.1378211 corrected_total_energy=-12.34419054 ef_per_atom=-0.21585167583333323 task_id=mp-10006 calc_id=1 ionic_step=3 energy=-11.50019054 stress="0.006898140315192896 -0.0007794223082449314 -0.002936273784628677 -0.0007794223082449314 0.006800978873701963 -0.0031249872673213834 -0.002936273784628677 -0.0031249872673213834 -0.004142094176038048" pbc="T T T"
Ag       2.86702090       1.01102981       3.33065351       0.00000000       0.00000000       0.00000000
Te       1.40687967       1.49729944       5.64069197      -0.01418785      -0.01509970      -0.05688425
Te       2.29086002       2.43809294       1.02061505       0.01418785       0.01509970       0.05688425
Tl       0.00000000       0.00000000       0.00000000       0.00000000       0.00000000       0.00000000
4
Lattice="3.87375655 0.0 -0.96617746 -0.24098027 3.86625378 -0.96617746 0.05457669 0.05808432 8.46755537" Properties=species:S:1:pos:R:3:forces:R:3 e_per_atom_relaxed=-3.1378211 mp_id=mp-10006 energy_per_atom=-3.0780831675 ef_per_atom_relaxed=-3.1378211 corrected_total_energy=-12.31233267 ef_per_atom=-0.20788720833333332 task_id=mp-10006 calc_id=1 ionic_step=2 energy=-11.46833267 stress="0.007336023829964003 -0.0008643917480886013 -0.0032563743673870984 -0.0008643917480886013 0.007228270241652499 -0.003465660619381321 -0.0032563743673870984 -0.003465660619381321 -0.0049077719634142355" pbc="T T T"
Ag       2.87236069       0.99560561       3.26760022       0.00000000       0.00000000       0.00000000
Te       1.38549582       1.47454124       5.55495623      -0.01220286      -0.01298714      -0.04892571
Te       2.30185715       2.44979686       0.98024422       0.01220286       0.01298714       0.04892571
Tl       0.00000000       0.00000000       0.00000000       0.00000000       0.00000000       0.00000000
4
Lattice="3.80348053 0.0 -0.94864949 -0.23660851 3.79611388 -0.94864949 0.0 0.0 8.09909254" Properties=species:S:1:pos:R:3:forces:R:3 e_per_atom_relaxed=-3.1378211 mp_id=mp-10006 energy_per_atom=-3.0429705449999997 ef_per_atom_relaxed=-3.1378211 corrected_total_energy=-12.171882179999999 ef_per_atom=-0.17277458583333308 task_id=mp-10006 calc_id=1 ionic_step=0 energy=-11.32788218 stress="-0.015580185227978084 -0.0013825581095384812 -0.005208433341034058 -0.0013825581095384812 -0.015752532537516354 -0.00554317787733381 -0.005208433341034058 -0.00554317787733381 -0.0351636197711268" pbc="T T T"
Ag       2.79345827       0.94902847       3.10089678       0.00000000       0.00000000       0.00000000
Te       1.31617578       1.40076602       5.27702697       0.10128183       0.10779118       0.40607565
Te       2.25069624       2.39534786       0.92476659      -0.10128183      -0.10779118      -0.40607565
Tl       0.00000000       0.00000000       0.00000000       0.00000000       0.00000000       0.00000000
4
Lattice="3.52180028 -0.0 -0.87839356 -0.2190856 3.51497972 -0.87839357 0.51918944 0.55255715 9.58090538" Properties=species:S:1:pos:R:3:forces:R:3:magmoms:R:1 bandgap=0.0 e_per_atom_relaxed=-3.1378211 mp_id=mp-10006 energy_per_atom=-3.1025476725 ef_per_atom_relaxed=-3.1378211 corrected_total_energy=-12.41019069 ef_per_atom=-0.2323517133333334 task_id=mp-1178929 calc_id=0 ionic_step=2 energy=-11.56619069 stress="-0.0010973304236096865 2.69145420299969e-05 0.00010139349675373818 2.69145420299969e-05 -0.0010939756124545242 0.00010791008166981737 0.00010139349675373818 0.00010791008166981737 -0.0007160958630310829" pbc="T T T"
Tl       0.00000000       0.00000000       0.00000000       0.00000000      -0.00000000      -0.00000000       0.00000000
Ag       2.84617353       1.15502350       3.91205913      -0.00000000      -0.00000000      -0.00000000       0.00000000
Te       1.58867289       1.69077631       6.36956768       0.00430535       0.00458206       0.01726173       0.00000000
Te       2.23323123       2.37676056       1.45455057      -0.00430535      -0.00458206      -0.01726173       0.00000000
4
Lattice="-1.784595 1.784595 9.505182 1.784595 -1.784595 9.505182 1.784595 1.784595 -9.505182" Properties=species:S:1:pos:R:3:forces:R:3:magmoms:R:1 bandgap=0.0 e_per_atom_relaxed=-3.1378211 mp_id=mp-10006 energy_per_atom=-3.1378211 ef_per_atom_relaxed=-3.1378211 corrected_total_energy=-12.5512844 ef_per_atom=-0.26762514083333333 task_id=mp-1413657 calc_id=0 ionic_step=0 energy=-11.7072844 stress="-0.00035807806864235575 -0.0 0.0 -0.0 -0.00035807806864235575 0.0 0.0 0.0 0.004388283899991859" pbc="T T T"
Tl       0.00000000       0.00000000       0.00000000       0.00000000       0.00000000       0.00000000      -0.00000000
Ag      -0.00000000       1.78459500       4.75259100       0.00000000       0.00000000       0.00000000       0.00000000
Te       0.00000000       0.00000000       6.94389665      -0.00000000      -0.00000000       0.08858231       0.00000000
Te       0.00000000       0.00000000      12.06646735      -0.00000000      -0.00000000      -0.08858231       0.00000000
6
Lattice="4.16230789 -0.01560623 0.93893867 1.76134177 3.77130292 0.93893867 0.00957464 0.00607049 7.33777768" Properties=species:S:1:pos:R:3:forces:R:3 bandgap=0 e_per_atom_relaxed=-6.950213711666667 mp_id=mp-1001 energy_per_atom=-6.948657335 ef_per_atom_relaxed=-6.950213711666667 corrected_total_energy=-41.69194401 ef_per_atom=-0.7513377483333328 task_id=mp-1001 calc_id=0 ionic_step=7 energy=-40.24794401 stress="-2.960889541398556e-05 1.042189717614434e-05 2.7757975882704882e-05 1.042189717614434e-05 -3.9439103766505296e-05 1.7599039727543126e-05 2.7757975882704882e-05 1.7599039727543126e-05 -1.0475062350878613e-05" pbc="T T T"
N        1.40626214       1.67871019       3.88920635       0.00347098      -0.00149270      -0.00160423
N        3.81025934       3.20288613       1.65755983      -0.00013047      -0.00377608       0.00160423
N        2.12296496       0.55888105       7.55809519       0.00013047       0.00377608      -0.00160423
N        4.52696216       2.08305699       5.32644867      -0.00347098       0.00149270       0.00160423
Ba       3.65677940       0.78702850       2.77338309      -0.00051453       0.00081153       0.00000000
Ba       2.27644490       2.97473868       6.44227193       0.00051453      -0.00081153       0.00000000
6
Lattice="4.16180416 -0.0137754 0.93944576 1.76278281 3.77006636 0.93944576 0.01047134 0.00663901 7.3377828" Properties=species:S:1:pos:R:3:forces:R:3 e_per_atom_relaxed=-6.950213711666667 mp_id=mp-1001 energy_per_atom=-6.9486551216666665 ef_per_atom_relaxed=-6.950213711666667 corrected_total_energy=-41.69193073 ef_per_atom=-0.7513355349999998 task_id=mp-1001 calc_id=0 ionic_step=5 energy=-40.24793073 stress="-0.00014432979298158538 0.0001007260984244166 7.617154589302569e-05 0.0001007260984244166 -0.00023933732088072174 4.8294082559614895e-05 7.617154589302569e-05 4.8294082559614895e-05 -5.228226333634439e-05" pbc="T T T"
N        1.40732244       1.67734105       3.89025024       0.01401229      -0.00156275      -0.00909492
N        3.81243105       3.20222165       1.65753268      -0.00456358      -0.01334017       0.00909492
N        2.12262726       0.56070832       7.55914164       0.00456358       0.01334017      -0.00909492
N        4.52773587       2.08558892       5.32642408      -0.01401229       0.00156275       0.00909492
Ba       3.65857177       0.78573353       2.77389146      -0.00544283       0.00858467       0.00000000
Ba       2.27648654       2.97719644       6.44278286       0.00544283      -0.00858467       0.00000000
6
Lattice="4.16131016 -0.01243959 0.93925382 1.76378028 3.76904977 0.93925382 0.01026237 0.00650652 7.33721209" Properties=species:S:1:pos:R:3:forces:R:3 e_per_atom_relaxed=-6.950213711666667 mp_id=mp-1001 energy_per_atom=-6.948634548333333 ef_per_atom_relaxed=-6.950213711666667 corrected_total_energy=-41.69180729 ef_per_atom=-0.751314961666666 task_id=mp-1001 calc_id=0 ionic_step=1 energy=-40.24780729 stress="0.00041780466105275976 -4.6587117194813586e-05 -0.00024094247474866165 -4.6587117194813586e-05 0.0004617468638573708 -0.00015276170980312435 -0.00024094247474866165 -0.00015276170980312435 0.000158716259305436" pbc="T T T"
N        1.40821176       1.67549561       3.89031102      -0.05490596       0.03091927       0.02158056
N        3.81411982       3.20088308       1.65680267      -0.00454481       0.06284911      -0.02158056
N        2.12123299       0.56223362       7.55891706       0.00454481      -0.06284911       0.02158056
N        4.52714105       2.08762109       5.32540871       0.05490596      -0.03091927      -0.02158056
Ba       3.65980099       0.78423588       2.77355684      -0.00778599       0.01228041       0.00000000
Ba       2.27555182       2.97888082       6.44216289       0.00778599      -0.01228041       0.00000000
6
Lattice="4.16158943 -0.01014051 0.94263676 1.76597884 3.76832167 0.94263676 0.01525621 0.0096727 7.34157433" Properties=species:S:1:pos:R:3:forces:R:3 e_per_atom_relaxed=-6.950213711666667 mp_id=mp-1001 energy_per_atom=-6.948035711666667 ef_per_atom_relaxed=-6.950213711666667 corrected_total_energy=-41.68821427 ef_per_atom=-0.7507161249999998 task_id=mp-1001 calc_id=1 ionic_step=18 energy=-40.24421427 stress="0.0001398577267268535 0.00031240387826285773 0.00044265562909404804 0.00031240387826285773 -0.0001548098984718377 0.0002806513490226059 0.00044265562909404804 0.0002806513490226059 0.0004573783005484735" pbc="T T T"
N        1.41117401       1.67453301       3.89526551      -0.03916407       0.03808062       0.00647757
N        3.81870164       3.20094731       1.66079518      -0.01773678       0.05166590      -0.00647757
N        2.12412284       0.56690655       7.56605267       0.01773678      -0.05166590       0.00647757
N        4.53165047       2.09332085       5.33158234       0.03916407      -0.03808062      -0.00647757
Ba       3.66052005       0.78860198       2.77803034       0.00719445      -0.01134740       0.00000000
Ba       2.28230443       2.97925188       6.44881751      -0.00719445       0.01134740       0.00000000
6
Lattice="4.16284288 -0.00980289 0.94495628 1.76681886 3.76931134 0.94495628 0.01843712 0.01168946 7.34564168" Properties=species:S:1:pos:R:3:forces:R:3 e_per_atom_relaxed=-6.950213711666667 mp_id=mp-1001 energy_per_atom=-6.9479783783333335 ef_per_atom_relaxed=-6.950213711666667 corrected_total_energy=-41.687870270000005 ef_per_atom=-0.7506587916666668 task_id=mp-1001 calc_id=1 ionic_step=16 energy=-40.24387027 stress="-0.0003576079020014121 0.0006287468665576974 0.0010455779146019105 0.0006287468665576974 -0.000950658629158796 0.0006629145477542097 0.0010455779146019105 0.0006629145477542097 0.0005099920629175118" pbc="T T T"
N        1.41240618       1.67554624       3.89872386       0.01581607       0.02149734      -0.02277026
N        3.82094355       3.20260072       1.66400954      -0.02618995      -0.00513521       0.02277026
N        2.12715531       0.56859719       7.57154470       0.02618995       0.00513521      -0.02277026
N        4.53569268       2.09565167       5.33683038      -0.01581607      -0.02149734       0.02277026
Ba       3.66046225       0.79276621       2.78136670       0.01815953      -0.02864201       0.00000000
Ba       2.28763661       2.97843170       6.45418754      -0.01815953       0.02864201       0.00000000
6
Lattice="4.16698232 -0.01300833 0.94518016 1.76568538 3.77442261 0.94518016 0.01735271 0.01100192 7.35219222" Properties=species:S:1:pos:R:3:forces:R:3 e_per_atom_relaxed=-6.950213711666667 mp_id=mp-1001 energy_per_atom=-6.947876030000001 ef_per_atom_relaxed=-6.950213711666667 corrected_total_energy=-41.687256180000006 ef_per_atom=-0.7505564433333336 task_id=mp-1001 calc_id=1 ionic_step=14 energy=-40.24325618 stress="0.0007062911450018333 0.0004244859968437258 0.0009681998787533427 0.0004244859968437258 0.00030590468843271244 0.000613855524560654 0.0009681998787533427 0.000613855524560654 0.0013941305789899091" pbc="T T T"
N        1.41092290       1.67741746       3.90097764      -0.01774342       0.04239813      -0.00537851
N        3.82234756       3.20630254       1.66547879      -0.03077890       0.03413341       0.00537851
N        2.12767285       0.56611366       7.57707375       0.03077890      -0.03413341      -0.00537851
N        4.53909751       2.09499874       5.34157490       0.01774342      -0.04239813       0.00537851
Ba       3.65892818       0.79790981       2.78322822       0.03051368      -0.04812751       0.00000000
Ba       2.29109223       2.97450639       6.45932433      -0.03051368       0.04812751       0.00000000
6
Lattice="4.16035299 -0.00749479 0.94559042 1.76784438 3.7660748 0.94559042 0.02028073 0.01285834 7.34244225" Properties=species:S:1:pos:R:3:forces:R:3 e_per_atom_relaxed=-6.950213711666667 mp_id=mp-1001 energy_per_atom=-6.947933385 ef_per_atom_relaxed=-6.950213711666667 corrected_total_energy=-41.68760031 ef_per_atom=-0.7506137983333327 task_id=mp-1001 calc_id=1 ionic_step=13 energy=-40.24360031 stress="-0.0015299550737271626 0.0009574078101539603 0.0014167012865701654 0.0009574078101539603 -0.0024330075282546527 0.0008982132002908828 0.0014167012865701654 0.0008982132002908828 -0.00020969412837408942" pbc="T T T"
N        1.41365297       1.67467023       3.89837753       0.08280886      -0.00903976      -0.05600784
N        3.82066147       3.20075539       1.66402444      -0.02714650      -0.07875337       0.05600784
N        2.12781663       0.57068296       7.56959865       0.02714650       0.07875337      -0.05600784
N        4.53482513       2.09676812       5.33524556      -0.08280886       0.00903976       0.05600784
Ba       3.66143209       0.79063664       2.78120098       0.01127442      -0.01778250       0.00000000
Ba       2.28704601       2.98080171       6.45242211      -0.01127442       0.01778250       0.00000000
6
Lattice="4.15703832 -0.00473802 0.94579555 1.76892387 3.7619009 0.94579555 0.02174474 0.01378654 7.33756727" Properties=species:S:1:pos:R:3:forces:R:3 e_per_atom_relaxed=-6.950213711666667 mp_id=mp-1001 energy_per_atom=-6.947817405 ef_per_atom_relaxed=-6.950213711666667 corrected_total_energy=-41.686904430000006 ef_per_atom=-0.7504978183333336 task_id=mp-1001 calc_id=1 ionic_step=12 energy=-40.24290443 stress="-0.0026405432491503748 0.0012212866512950182 0.0016535254263522956 0.0012212866512950182 -0.0037924932314678307 0.0010483638184417578 0.0016535254263522956 0.0010483638184417578 -0.0009994276780798724" pbc="T T T"
N        1.41501667       1.67329872       3.89707666       0.13366593      -0.03498380      -0.08116717
N        3.81981708       3.19798392       1.66329808      -0.02537451      -0.13581819       0.08116717
N        2.12788985       0.57296550       7.56586029       0.02537451       0.13581819      -0.08116717
N        4.53269026       2.09765070       5.33208171      -0.13366593       0.03498380       0.08116717
Ba       3.66267205       0.78701898       2.78018737       0.00108753      -0.00171530       0.00000000
Ba       2.28503488       2.98393044       6.44897100      -0.00108753       0.00171530       0.00000000
6
Lattice="4.15495292 -0.0028334 0.94557814 1.769757 3.75920231 0.94557814 0.0221549 0.01404659 7.33405911" Properties=species:S:1:pos:R:3:forces:R:3 e_per_atom_relaxed=-6.950213711666667 mp_id=mp-1001 energy_per_atom=-6.94776468 ef_per_atom_relaxed=-6.950213711666667 corrected_total_energy=-41.68658808 ef_per_atom=-0.7504450933333326 task_id=mp-1001 calc_id=1 ionic_step=10 energy=-40.24258808 stress="-0.0025545824392046957 0.0011594615137202732 0.0014488731828085856 0.0011594615137202732 -0.003648217302710001 0.0009186107454651982 0.0014488731828085856 0.0009186107454651982 -0.0011435160120394138" pbc="T T T"
N        1.41638376       1.67205565       3.89571653       0.09033357      -0.02155866      -0.06124696
N        3.81931106       3.19555326       1.66246930      -0.01903334      -0.09089918       0.06124696
N        2.12755376       0.57486224       7.56274609       0.01903334       0.09089918      -0.06124696
N        4.53048106       2.09835985       5.32949886      -0.09033357       0.02155866       0.06124696
Ba       3.66405240       0.78368402       2.77909292      -0.00735958       0.01160785       0.00000000
Ba       2.28281242       2.98673148       6.44612247       0.00735958      -0.01160785       0.00000000
6
Lattice="4.15234793 -0.00021459 0.94481887 1.77101443 3.75572912 0.94481887 0.0219481 0.01391547 7.32905593" Properties=species:S:1:pos:R:3:forces:R:3 e_per_atom_relaxed=-6.950213711666667 mp_id=mp-1001 energy_per_atom=-6.947587335 ef_per_atom_relaxed=-6.950213711666667 corrected_total_energy=-41.68552401 ef_per_atom=-0.750267748333333 task_id=mp-1001 calc_id=1 ionic_step=9 energy=-40.24152401 stress="-0.0016112394891338562 0.0007604901695492273 0.0006923467834938963 0.0007604901695492273 -0.0023285540005802585 0.00043895987550288443 0.0006923467834938963 0.00043895987550288443 -0.0011100461440461933" pbc="T T T"
N        1.41880787       1.66996760       3.89325528      -0.07062355       0.03722031       0.01359644
N        3.81871464       3.19155014       1.66091042      -0.00353944       0.07975280      -0.01359644
N        2.12659582       0.57787986       7.55778325       0.00353944      -0.07975280       0.01359644
N        4.52650259       2.09946240       5.32543839       0.07062355      -0.03722031      -0.01359644
Ba       3.66662424       0.77802337       2.77708285      -0.02091953       0.03299520       0.00000000
Ba       2.27868622       2.99140663       6.44161082       0.02091953      -0.03299520       0.00000000
6
Lattice="4.1545393 -0.00013648 0.94218792 1.77201982 3.75767782 0.94218792 0.01707986 0.01082893 7.33009409" Properties=species:S:1:pos:R:3:forces:R:3 e_per_atom_relaxed=-6.950213711666667 mp_id=mp-1001 energy_per_atom=-6.9474349250000005 ef_per_atom_relaxed=-6.950213711666667 corrected_total_energy=-41.684609550000005 ef_per_atom=-0.7501153383333334 task_id=mp-1001 calc_id=1 ionic_step=7 energy=-40.24060955 stress="-0.000990925925012724 0.000571594834246629 0.00017341992536457315 0.000571594834246629 -0.0015300693432762395 0.00010995124239925497 0.00017341992536457315 0.00010995124239925497 -0.0007891246218339526" pbc="T T T"
N        1.41697812       1.67009968       3.89315237       0.00523022      -0.00285926      -0.01991586
N        3.82013831       3.19374495       1.65627052       0.00035511      -0.00595017       0.01991586
N        2.12350067       0.57462532       7.55819941      -0.00035511       0.00595017      -0.01991586
N        4.52666086       2.09827059       5.32131756      -0.00523022       0.00285926       0.01991586
Ba       3.67197662       0.77042456       2.77471144      -0.05712288       0.09009672       0.00000000
Ba       2.27166236       2.99794571       6.43975849       0.05712288      -0.09009672       0.00000000
6
Lattice="4.15877089 -0.00051985 0.93855748 1.77347809 3.76166865 0.93855748 0.010037 0.00636363 7.33297696" Properties=species:S:1:pos:R:3:forces:R:3 e_per_atom_relaxed=-6.950213711666667 mp_id=mp-1001 energy_per_atom=-6.946845011666667 ef_per_atom_relaxed=-6.950213711666667 corrected_total_energy=-41.681070070000004 ef_per_atom=-0.7495254250000001 task_id=mp-1001 calc_id=1 ionic_step=4 energy=-40.23707007 stress="0.0020339406078543625 -0.00029503441372398287 -0.001323356371871982 -0.00029503441372398287 0.0023122248957485225 -0.0008390309049253106 -0.001323356371871982 -0.0008390309049253106 0.0007050508198253195" pbc="T T T"
N        1.41597455       1.67003844       3.89288489      -0.11259990       0.03464449       0.03696333
N        3.82279020       3.19600133       1.65071855       0.01669556       0.11662005      -0.03696333
N        2.11949578       0.57151110       7.55937337      -0.01669556      -0.11662005       0.03696333
N        4.52631143       2.09747399       5.31720703       0.11259990      -0.03464449      -0.03696333
Ba       3.67964294       0.76073039       2.77180172      -0.09450214       0.14905293       0.00000000
Ba       2.26264304       3.00678204       6.43829020       0.09450214      -0.14905293       0.00000000
6
Lattice="4.11752124 -0.00135073 0.92266185 1.75513131 3.72471436 0.92266185 -0.00116212 -0.00073681 7.25795678" Properties=species:S:1:pos:R:3:forces:R:3 e_per_atom_relaxed=-6.950213711666667 mp_id=mp-1001 energy_per_atom=-6.943688768333333 ef_per_atom_relaxed=-6.950213711666667 corrected_total_energy=-41.66213261 ef_per_atom=-0.7463691816666661 task_id=mp-1001 calc_id=1 ionic_step=2 energy=-40.21813261 stress="-0.0068782945506328545 -0.0006653055887607171 -0.0025506421620105067 -0.0006653055887607171 -0.006250760665200191 -0.00161715139664582 -0.0025506421620105067 -0.00161715139664582 -0.008891002212282438" pbc="T T T"
N        1.40284521       1.64849785       3.84550938      -0.35201250       0.12877293       0.17912423
N        3.78267724       3.15735266       1.62879271       0.03368289       0.37331050      -0.17912423
N        2.08881319       0.56527416       7.47448777      -0.03368289      -0.37331050       0.17912423
N        4.46864522       2.07412897       5.25777110       0.35201250      -0.12877293      -0.17912423
Ba       3.64317340       0.74616907       2.73715105      -0.05333456       0.08412160       0.00000000
Ba       2.22831703       2.97645775       6.36612943       0.05333456      -0.08412160       0.00000000
6
Lattice="4.16976752 -0.00704533 0.92988978 1.77226672 3.77439816 0.92988978 -0.00606158 -0.00384315 7.33661288" Properties=species:S:1:pos:R:3:forces:R:3 e_per_atom_relaxed=-6.950213711666667 mp_id=mp-1001 energy_per_atom=-6.906208561666667 ef_per_atom_relaxed=-6.950213711666667 corrected_total_energy=-41.437251370000006 ef_per_atom=-0.7088889750000003 task_id=mp-1001 calc_id=1 ionic_step=1 energy=-39.99325137 stress="0.029340910028088713 -0.008290728773315527 -0.012888895763370262 -0.008290728773315527 0.03716094541453941 -0.008171783597405493 -0.012888895763370262 -0.008171783597405493 0.01233862204912783" pbc="T T T"
N        1.43504996       1.65997570       3.87754215      -2.85635077       1.15386013       1.31947780
N        3.82549080       3.17555668       1.65054385       0.17477156       3.07564430      -1.31947780
N        2.11048186       0.58795300       7.54584859      -0.17477156      -3.07564430       1.31947780
N        4.50092270       2.10353398       5.31885029       2.85635077      -1.15386013      -1.31947780
Ba       3.68467324       0.75471572       2.76404300      -0.02515108       0.03966939       0.00000000
Ba       2.25129942       3.00879396       6.43234944       0.02515108      -0.03966939       0.00000000
6
Lattice="3.502572 2.24482 -0.938558 3.502572 -2.24482 -0.938558 -0.00149 0.0 -7.331931" Properties=species:S:1:pos:R:3:forces:R:3:magmoms:R:1 bandgap=0.0 e_per_atom_relaxed=-6.950213711666667 mp_id=mp-1001 energy_per_atom=-6.948899985000001 ef_per_atom_relaxed=-6.950213711666667 corrected_total_energy=-41.693399910000004 ef_per_atom=-0.7515803983333333 task_id=mp-1072212 calc_id=0 ionic_step=0 energy=-40.24939991 stress="0.0008906714974329502 -0.0 8.640104230885554e-05 -0.0 0.00146985153161461 -0.0 8.640104230885554e-05 -0.0 -0.0011036852098846954" pbc="T T T"
Ba       3.50219950       1.29643294      -2.77154075      -0.00000000      -0.03094658      -0.00000000       0.00000000
Ba       3.50145450      -1.29643294      -6.43750625      -0.00000000       0.03094658      -0.00000000       0.00000000
N        2.08876889      -0.67243134      -3.88842106      -0.05605386       0.03467846       0.01286991       0.00000000
N        4.91563011      -0.67243134      -1.65466044       0.05605386       0.03467846      -0.01286991       0.00000000
N        4.91488511       0.67243134      -5.32062594       0.05605386      -0.03467846      -0.01286991       0.00000000
N        2.08802389       0.67243134      -7.55438656      -0.05605386      -0.03467846       0.01286991       0.00000000
6
Lattice="3.50851824 2.22399777 -0.94560195 3.50851824 -2.22399777 -0.94560195 0.01014983 0.0 -7.34351525" Properties=species:S:1:pos:R:3:forces:R:3 e_per_atom_relaxed=-6.950213711666667 mp_id=mp-1001 energy_per_atom=-6.946252126666668 ef_per_atom_relaxed=-6.950213711666667 corrected_total_energy=-41.677512760000006 ef_per_atom=-0.7489325400000004 task_id=mp-1072190 calc_id=1 ionic_step=9 energy=-40.23351276 stress="-0.002706645967555489 -0.0 -0.004369664498352415 -0.0 -0.01003915105312714 -0.0 -0.004369664498352415 -0.0 -0.0003463716813711229" pbc="T T T"
Ba       3.51105570       1.29529153      -2.78148076       0.00000000      -0.06465437       0.00000000
Ba       3.51613061      -1.29529153      -6.45323839       0.00000000       0.06465437       0.00000000
N        2.10706618      -0.67842216      -3.88741133       0.07587872       0.28188501       0.02776712
N        4.91504521      -0.67842216      -1.67555019      -0.07587872       0.28188501      -0.02776712
N        4.92012013       0.67842216      -5.34730782      -0.07587872      -0.28188501      -0.02776712
N        2.11214110       0.67842216      -7.55916896       0.07587872      -0.28188501       0.02776712
6
Lattice="3.51753121 2.22138323 -0.95148863 3.51753121 -2.22138323 -0.95148863 0.01818968 0.0 -7.35950043" Properties=species:S:1:pos:R:3:forces:R:3 e_per_atom_relaxed=-6.950213711666667 mp_id=mp-1001 energy_per_atom=-6.944906491666666 ef_per_atom_relaxed=-6.950213711666667 corrected_total_energy=-41.66943895 ef_per_atom=-0.7475869049999994 task_id=mp-1072190 calc_id=1 ionic_step=6 energy=-40.22543895 stress="0.0019287781633319412 -0.0 -0.0013832660464695753 -0.0 -0.002880893161264134 -0.0 -0.0013832660464695753 -0.0 0.001604740336752766" pbc="T T T"
Ba       3.52207863       1.29970223      -2.79136374       0.00000000      -0.10450009       0.00000000
Ba       3.53117347      -1.29970223      -6.47111395      -0.00000000       0.10450009       0.00000000
N        2.12200420      -0.68072936      -3.89238007      -0.21220379      -0.01472533      -0.19291072
N        4.92215306      -0.68072936      -1.69034740       0.21220379      -0.01472533       0.19291072
N        4.93124790       0.68072936      -5.37009762       0.21220379       0.01472533       0.19291072
N        2.13109904       0.68072936      -7.57213029      -0.21220379       0.01472533      -0.19291072
6
Lattice="3.56348706 2.25022595 -0.96458727 3.56348706 -2.25022595 -0.96458727 0.02094156 0.0 -7.45151991" Properties=species:S:1:pos:R:3:forces:R:3 e_per_atom_relaxed=-6.950213711666667 mp_id=mp-1001 energy_per_atom=-6.937632866666666 ef_per_atom_relaxed=-6.950213711666667 corrected_total_energy=-41.6257972 ef_per_atom=-0.7403132799999995 task_id=mp-1072190 calc_id=1 ionic_step=3 energy=-40.1817972 stress="0.010978540887219517 -0.0 -0.0011757163945254844 -0.0 0.009017341541774668 -0.0 -0.0011757163945254844 -0.0 0.01077755470640806" pbc="T T T"
Ba       3.56872245       1.33288115      -2.82746725      -0.00000000      -0.35019923       0.00000000
Ba       3.57919323      -1.33288115      -6.55322720      -0.00000000       0.35019923       0.00000000
N        2.14924008      -0.70301170      -3.94214123       0.01250470       0.31634389      -0.01854502
N        4.98820482      -0.70301170      -1.71279327      -0.01250470       0.31634389       0.01854502
N        4.99867560       0.70301170      -5.43855322      -0.01250470      -0.31634389       0.01854502
N        2.15971086       0.70301170      -7.66790118       0.01250470      -0.31634389      -0.01854502
6
Lattice="3.54630578 2.23167857 -0.97963915 3.54630578 -2.23167857 -0.97963915 0.05769211 0.0 -7.43159582" Properties=species:S:1:pos:R:3:forces:R:3 e_per_atom_relaxed=-6.950213711666667 mp_id=mp-1001 energy_per_atom=-6.771717703333334 ef_per_atom_relaxed=-6.950213711666667 corrected_total_energy=-40.63030622 ef_per_atom=-0.5743981166666662 task_id=mp-1072190 calc_id=1 ionic_step=1 energy=-39.18630622 stress="-0.06309739660882212 -0.0 -0.04863610350966869 -0.0 -0.08702783030274011 -0.0 -0.04863610350966869 -0.0 -0.02976669473942682" pbc="T T T"
Ba       3.56072881       1.32598963      -2.83753811       0.00000000      -0.54687519       0.00000000
Ba       3.58957486      -1.32598963      -6.55333602      -0.00000000       0.54687519       0.00000000
N        2.12863953      -0.73102068      -3.96204129       6.05338369       7.50081673       4.50256749
N        4.99281808      -0.73102068      -1.71303492      -6.05338369       7.50081673      -4.50256749
N        5.02166414       0.73102068      -5.42883283      -6.05338369      -7.50081673      -4.50256749
N        2.15748559       0.73102068      -7.67783920       6.05338369      -7.50081673       4.50256749
6
Lattice="3.623429 2.292888 -0.968719 3.623429 -2.292888 -0.968719 0.0 0.0 -7.562143" Properties=species:S:1:pos:R:3:forces:R:3 e_per_atom_relaxed=-6.950213711666667 mp_id=mp-1001 energy_per_atom=-6.885838238333333 ef_per_atom_relaxed=-6.950213711666667 corrected_total_energy=-41.31502943 ef_per_atom=-0.6885186516666665 task_id=mp-1072190 calc_id=1 ionic_step=0 energy=-39.87102943 stress="0.04617212331625605 -0.0 0.01510234334708874 -0.0 0.05284553458140187 -0.0 0.01510234334708874 -0.0 0.03417396520407396" pbc="T T T"
Ba       3.62342900       1.37270619      -2.85925475       0.00000000      -0.42899465      -0.00000000
Ba       3.62342900      -1.37270619      -6.64032625       0.00000000       0.42899465      -0.00000000
N        2.19072517      -0.70941955      -3.98260214      -1.76661293      -1.72673909      -1.34165033
N        5.05613283      -0.70941955      -1.73590736       1.76661293      -1.72673909       1.34165033
N        5.05613283       0.70941955      -5.51697886       1.76661293       1.72673909       1.34165033
N        2.19072517       0.70941955      -7.76367364      -1.76661293       1.72673909      -1.34165033
6
Lattice="2.241948 3.630472 0.0 -2.241948 3.630472 0.0 0.0 1.9087 7.085194" Properties=species:S:1:pos:R:3:forces:R:3:magmoms:R:1 bandgap=0.0 e_per_atom_relaxed=-6.950213711666667 mp_id=mp-1001 energy_per_atom=-6.950207353333334 ef_per_atom_relaxed=-6.950213711666667 corrected_total_energy=-41.701244120000005 ef_per_atom=-0.7528877666666669 task_id=mp-1300080 calc_id=0 ionic_step=0 energy=-40.25724412 stress="0.0008516671896751722 -0.0 -0.0 -0.0 -7.23052680310338e-05 3.965534709168064e-05 -0.0 3.965534709168064e-05 -0.00020644434933449754" pbc="T T T"
Ba      -1.29338429       4.10764700       1.77129850      -0.00013165      -0.00000000      -0.00000000       0.00000000
Ba       1.29338429       5.06199700       5.31389550       0.00013165      -0.00000000      -0.00000000       0.00000000
N        0.66476449       3.02142393       3.21724489      -0.00270480       0.00497054       0.00353102      -0.00000000
N        0.66476449       5.19387007       0.32535211      -0.00270480      -0.00497054      -0.00353102      -0.00000000
N       -0.66476449       3.97577393       6.75984189       0.00270480       0.00497054       0.00353102      -0.00000000
N       -0.66476449       6.14822007       3.86794911       0.00270480      -0.00497054      -0.00353102      -0.00000000
14
Lattice="-5.52149002 -5.52149002 0.0 -5.52149002 -0.0 -5.52149002 0.0 -5.52149002 -5.52149002" Properties=species:S:1:pos:R:3:forces:R:3:magmoms:R:1 bandgap=0.6759 e_per_atom_relaxed=-6.344728767142857 mp_id=mp-1001015 energy_per_atom=-6.343172159285714 ef_per_atom_relaxed=-6.344728767142857 corrected_total_energy=-88.80441023 ef_per_atom=-1.9521136755952384 task_id=mp-1104433 calc_id=0 ionic_step=2 energy=-84.78041023 stress="0.00035874619722824503 -0.0 0.0 -0.0 0.00035874619722824503 -0.0 0.0 -0.0 0.00035874619722824503" pbc="T T T"
Y        0.00000000      -2.76074501      -2.76074501      -0.00000000      -0.00000000       0.00000000      -0.00000000
Y       -2.76074501       0.00000000      -2.76074501      -0.00000000      -0.00000000       0.00000000      -0.00000000
Y       -2.76074501      -2.76074501       0.00000000      -0.00000000      -0.00000000       0.00000000      -0.00000000
Y        0.00000000       0.00000000       0.00000000      -0.00000000      -0.00000000       0.00000000       0.00000000
Zn      -4.14111751      -4.14111751      -4.14111751      -0.00000000       0.00000000       0.00000000      -0.00000000
Zn      -6.90186253      -6.90186253      -6.90186253      -0.00000000      -0.00000000       0.00000000       0.00000000
S       -2.74069228      -5.54154275      -5.54154275      -0.02400925       0.02400925       0.02400925      -0.00000000
S       -5.54154275      -2.74069228      -5.54154275       0.02400925      -0.02400925       0.02400925      -0.00000000
S       -5.54154275      -5.54154275      -2.74069228       0.02400925       0.02400925      -0.02400925      -0.00000000
S       -2.74069228      -2.74069228      -2.74069228      -0.02400925      -0.02400925      -0.02400925       0.00000000
S       -8.30228776      -5.50143729      -5.50143729       0.02400925      -0.02400925      -0.02400925       0.00000000
S       -5.50143729      -8.30228776      -5.50143729      -0.02400925       0.02400925      -0.02400925      -0.00000000
S       -5.50143729      -5.50143729      -8.30228776      -0.02400925      -0.02400925       0.02400925      -0.00000000
S       -8.30228776      -8.30228776      -8.30228776       0.02400925       0.02400925       0.02400925      -0.00000000
14
Lattice="-5.53040712 -5.53040712 0.0 -5.53040712 0.0 -5.53040712 0.0 -5.53040712 -5.53040712" Properties=species:S:1:pos:R:3:forces:R:3 e_per_atom_relaxed=-6.344728767142857 mp_id=mp-1001015 energy_per_atom=-6.342841577857143 ef_per_atom_relaxed=-6.344728767142857 corrected_total_energy=-88.79978209000001 ef_per_atom=-1.9517830941666674 task_id=mp-1104433 calc_id=0 ionic_step=0 energy=-84.77578209 stress="0.001011390241851668 -0.0 0.0 -0.0 0.001011390241851668 -0.0 0.0 -0.0 0.001011390241851668" pbc="T T T"
Y        0.00000000      -2.76520356      -2.76520356       0.00000000      -0.00000000      -0.00000000
Y       -2.76520356       0.00000000      -2.76520356       0.00000000      -0.00000000       0.00000000
Y       -2.76520356      -2.76520356       0.00000000       0.00000000      -0.00000000       0.00000000
Y        0.00000000       0.00000000       0.00000000       0.00000000       0.00000000      -0.00000000
Zn      -4.14780534      -4.14780534      -4.14780534       0.00000000      -0.00000000       0.00000000
Zn      -6.91300890      -6.91300890      -6.91300890       0.00000000       0.00000000      -0.00000000
S       -2.74162146      -5.55398927      -5.55398927      -0.05298883       0.05298883       0.05298883
S       -5.55398927      -2.74162146      -5.55398927       0.05298883      -0.05298883       0.05298883
S       -5.55398927      -5.55398927      -2.74162146       0.05298883       0.05298883      -0.05298883
S       -2.74162146      -2.74162146      -2.74162146      -0.05298883      -0.05298883      -0.05298883
S       -8.31919278      -5.50682497      -5.50682497       0.05298883      -0.05298883      -0.05298883
S       -5.50682497      -8.31919278      -5.50682497      -0.05298883       0.05298883      -0.05298883
S       -5.50682497      -5.50682497      -8.31919278      -0.05298883      -0.05298883       0.05298883
S       -8.31919278      -8.31919278      -8.31919278       0.05298883       0.05298883       0.05298883
14
Lattice="-5.55749103 -5.55749103 0.0 -5.55749103 -0.0 -5.55749103 0.0 -5.55749103 -5.55749103" Properties=species:S:1:pos:R:3:forces:R:3 e_per_atom_relaxed=-6.344728767142857 mp_id=mp-1001015 energy_per_atom=-6.338577971428571 ef_per_atom_relaxed=-6.344728767142857 corrected_total_energy=-88.7400916 ef_per_atom=-1.9475194877380955 task_id=mp-1104433 calc_id=1 ionic_step=3 energy=-84.7160916 stress="0.0039707951404404866 0.0 0.0 0.0 0.0039707951404404866 -0.0 0.0 -0.0 0.0039707951404404866" pbc="T T T"
Y        0.00000000      -2.77874552      -2.77874552       0.00000000      -0.00000000      -0.00000000
Y       -2.77874552       0.00000000      -2.77874552       0.00000000      -0.00000000      -0.00000000
Y       -2.77874552      -2.77874552       0.00000000       0.00000000      -0.00000000      -0.00000000
Y        0.00000000       0.00000000       0.00000000       0.00000000      -0.00000000      -0.00000000
Zn      -4.16811827      -4.16811827      -4.16811827       0.00000000      -0.00000000      -0.00000000
Zn      -6.94686379      -6.94686379      -6.94686379       0.00000000      -0.00000000      -0.00000000
S       -2.74102549      -5.59521100      -5.59521100      -0.17281334       0.17281334       0.17281334
S       -5.59521100      -2.74102549      -5.59521100       0.17281334      -0.17281334       0.17281334
S       -5.59521100      -5.59521100      -2.74102549       0.17281334       0.17281334      -0.17281334
S       -2.74102549      -2.74102549      -2.74102549      -0.17281334      -0.17281334      -0.17281334
S       -8.37395657      -5.51977106      -5.51977106       0.17281334      -0.17281334      -0.17281334
S       -5.51977106      -8.37395657      -5.51977106      -0.17281334       0.17281334      -0.17281334
S       -5.51977106      -5.51977106      -8.37395657      -0.17281334      -0.17281334       0.17281334
S       -8.37395657      -8.37395657      -8.37395657       0.17281334       0.17281334       0.17281334
14
Lattice="-5.59372821 -5.59372821 0.0 -5.59372821 -0.0 -5.59372821 0.0 -5.59372821 -5.59372821" Properties=species:S:1:pos:R:3:forces:R:3 e_per_atom_relaxed=-6.344728767142857 mp_id=mp-1001015 energy_per_atom=-6.327173207142857 ef_per_atom_relaxed=-6.344728767142857 corrected_total_energy=-88.5804249 ef_per_atom=-1.936114723452381 task_id=mp-1104433 calc_id=1 ionic_step=2 energy=-84.5564249 stress="0.009251613110294113 -0.0 -0.0 -0.0 0.009251613110294113 0.0 -0.0 0.0 0.009251613110294113" pbc="T T T"
Y        0.00000000      -2.79686411      -2.79686411      -0.00000000      -0.00000000      -0.00000000
Y       -2.79686411       0.00000000      -2.79686411      -0.00000000      -0.00000000      -0.00000000
Y       -2.79686411      -2.79686411       0.00000000      -0.00000000      -0.00000000      -0.00000000
Y        0.00000000       0.00000000       0.00000000      -0.00000000      -0.00000000      -0.00000000
Zn      -4.19529616      -4.19529616      -4.19529616      -0.00000000      -0.00000000      -0.00000000
Zn      -6.99216026      -6.99216026      -6.99216026      -0.00000000      -0.00000000      -0.00000000
S       -2.74013676      -5.65045549      -5.65045549      -0.32267377       0.32267377       0.32267377
S       -5.65045549      -2.74013676      -5.65045549       0.32267377      -0.32267377       0.32267377
S       -5.65045549      -5.65045549      -2.74013676       0.32267377       0.32267377      -0.32267377
S       -2.74013676      -2.74013676      -2.74013676      -0.32267377      -0.32267377      -0.32267377
S       -8.44731966      -5.53700093      -5.53700093       0.32267377      -0.32267377      -0.32267377
S       -5.53700093      -8.44731966      -5.53700093      -0.32267377       0.32267377      -0.32267377
S       -5.53700093      -5.53700093      -8.44731966      -0.32267377      -0.32267377       0.32267377
S       -8.44731966      -8.44731966      -8.44731966       0.32267377       0.32267377       0.32267377
14
Lattice="-5.68126667 -5.68126667 0.0 -5.68126667 -0.0 -5.68126667 0.0 -5.68126667 -5.68126667" Properties=species:S:1:pos:R:3:forces:R:3 e_per_atom_relaxed=-6.344728767142857 mp_id=mp-1001015 energy_per_atom=-6.308635567857143 ef_per_atom_relaxed=-6.344728767142857 corrected_total_energy=-88.32089795 ef_per_atom=-1.917577084166667 task_id=mp-1104433 calc_id=1 ionic_step=1 energy=-84.29689795 stress="0.028081618915107315 -0.0 -0.0 -0.0 0.028081618915107315 0.0 -0.0 0.0 0.028081618915107315" pbc="T T T"
Y        0.00000000      -2.84063334      -2.84063334      -0.00000000      -0.00000000       0.00000000
Y       -2.84063334       0.00000000      -2.84063334      -0.00000000      -0.00000000       0.00000000
Y       -2.84063334      -2.84063334       0.00000000      -0.00000000      -0.00000000       0.00000000
Y        0.00000000       0.00000000       0.00000000      -0.00000000      -0.00000000       0.00000000
Zn      -4.26095000      -4.26095000      -4.26095000      -0.00000000      -0.00000000       0.00000000
Zn      -7.10158334      -7.10158334      -7.10158334      -0.00000000      -0.00000000       0.00000000
S       -2.80108377      -5.72081618      -5.72081618      -0.00300460       0.00300460       0.00300460
S       -5.72081618      -2.80108377      -5.72081618       0.00300460      -0.00300460       0.00300460
S       -5.72081618      -5.72081618      -2.80108377       0.00300460       0.00300460      -0.00300460
S       -2.80108377      -2.80108377      -2.80108377      -0.00300460      -0.00300460      -0.00300460
S       -8.56144957      -5.64171716      -5.64171716       0.00300460      -0.00300460      -0.00300460
S       -5.64171716      -8.56144957      -5.64171716      -0.00300460       0.00300460      -0.00300460
S       -5.64171716      -5.64171716      -8.56144957      -0.00300460      -0.00300460       0.00300460
S       -8.56144957      -8.56144957      -8.56144957       0.00300460       0.00300460       0.00300460
14
Lattice="-5.442882 -5.442882 0.0 -5.442882 0.0 -5.442882 0.0 -5.442882 -5.442882" Properties=species:S:1:pos:R:3:forces:R:3 e_per_atom_relaxed=-6.344728767142857 mp_id=mp-1001015 energy_per_atom=-6.2645087721428565 ef_per_atom_relaxed=-6.344728767142857 corrected_total_energy=-87.70312281 ef_per_atom=-1.873450288452381 task_id=mp-1104433 calc_id=1 ionic_step=0 energy=-83.67912281 stress="-0.03941210945798867 -0.0 0.0 -0.0 -0.03941210945798867 -0.0 0.0 -0.0 -0.03941210945798867" pbc="T T T"
Y        0.00000000      -2.72144100      -2.72144100      -0.00000000       0.00000000      -0.00000000
Y       -2.72144100       0.00000000      -2.72144100      -0.00000000       0.00000000      -0.00000000
Y       -2.72144100      -2.72144100       0.00000000      -0.00000000       0.00000000      -0.00000000
Y        0.00000000       0.00000000       0.00000000      -0.00000000       0.00000000      -0.00000000
Zn      -4.08216150      -4.08216150      -4.08216150      -0.00000000       0.00000000      -0.00000000
Zn      -6.80360250      -6.80360250      -6.80360250      -0.00000000       0.00000000      -0.00000000
S       -2.63435489      -5.52996811      -5.52996811      -1.01976328       1.01976328       1.01976328
S       -5.52996811      -2.63435489      -5.52996811       1.01976328      -1.01976328       1.01976328
S       -5.52996811      -5.52996811      -2.63435489       1.01976328       1.01976328      -1.01976328
S       -2.63435489      -2.63435489      -2.63435489      -1.01976328      -1.01976328      -1.01976328
S       -8.25140911      -5.35579589      -5.35579589       1.01976328      -1.01976328      -1.01976328
S       -5.35579589      -8.25140911      -5.35579589      -1.01976328       1.01976328      -1.01976328
S       -5.35579589      -5.35579589      -8.25140911      -1.01976328      -1.01976328       1.01976328
S       -8.25140911      -8.25140911      -8.25140911       1.01976328       1.01976328       1.01976328
14
Lattice="5.51615716 5.51615716 0.0 5.51615716 0.0 -5.51615716 0.0 5.51615716 -5.51615716" Properties=species:S:1:pos:R:3:forces:R:3:magmoms:R:1 bandgap=0.9104000000000001 e_per_atom_relaxed=-6.344728767142857 mp_id=mp-1001015 energy_per_atom=-6.344440352142857 ef_per_atom_relaxed=-6.344728767142857 corrected_total_energy=-88.82216493 ef_per_atom=-1.9533818684523812 task_id=mp-1001015 calc_id=0 ionic_step=0 energy=-84.79816493 stress="-0.0006480458312277477 -0.0 -0.0 -0.0 -0.0006480458312277477 0.0 -0.0 0.0 -0.0006480458312277477" pbc="T T T"
Y        5.51615716       2.75807858      -2.75807858       0.00000000      -0.00000000       0.00000000       0.00000000
Y        2.75807858       5.51615716      -2.75807858       0.00000000       0.00000000       0.00000000       0.00000000
Y        2.75807858       2.75807858       0.00000000      -0.00000000       0.00000000       0.00000000       0.00000000
Y        0.00000000       0.00000000       0.00000000       0.00000000       0.00000000       0.00000000       0.00000000
Zn       6.89519645       6.89519645      -4.13711787      -0.00000000       0.00000000       0.00000000       0.00000000
Zn       4.13711787       4.13711787      -6.89519645       0.00000000      -0.00000000      -0.00000000       0.00000000
S        8.29091958       5.49947332      -5.53284100       0.01335744      -0.01335744      -0.01335744       0.00000000
S        5.49947332       8.29091958      -5.53284100      -0.01335744       0.01335744      -0.01335744       0.00000000
S        5.49947332       5.49947332      -2.74139474      -0.01335744      -0.01335744       0.01335744       0.00000000
S        2.77476242       2.77476242      -2.74139474       0.01335744       0.01335744       0.01335744       0.00000000
S        2.74139474       5.53284100      -5.49947332      -0.01335744       0.01335744       0.01335744       0.00000000
S        5.53284100       2.74139474      -5.49947332       0.01335744      -0.01335744       0.01335744       0.00000000
S        5.53284100       5.53284100      -8.29091958       0.01335744       0.01335744      -0.01335744       0.00000000
S        8.25755190       8.25755190      -8.29091958      -0.01335744      -0.01335744      -0.01335744       0.00000000
14
Lattice="5.54658212 5.54658212 -0.0 5.54658212 -0.0 -5.54658212 0.0 5.54658212 -5.54658212" Properties=species:S:1:pos:R:3:forces:R:3 e_per_atom_relaxed=-6.344728767142857 mp_id=mp-1001015 energy_per_atom=-6.341464525 ef_per_atom_relaxed=-6.344728767142857 corrected_total_energy=-88.78050335 ef_per_atom=-1.9504060413095243 task_id=mp-1001015 calc_id=1 ionic_step=3 energy=-84.75650335 stress="0.004759386618806415 -0.0 0.0 -0.0 0.004759386618806415 -0.0 0.0 -0.0 0.004759386618806415" pbc="T T T"
Y        5.54658212       2.77329106      -2.77329106       0.00000000       0.00000000      -0.00000000
Y        2.77329106       5.54658212      -2.77329106      -0.00000000       0.00000000      -0.00000000
Y        2.77329106       2.77329106       0.00000000      -0.00000000       0.00000000      -0.00000000
Y        0.00000000       0.00000000       0.00000000      -0.00000000       0.00000000       0.00000000
Zn       6.93322765       6.93322765      -4.15993659       0.00000000      -0.00000000       0.00000000
Zn       4.15993659       4.15993659      -6.93322765      -0.00000000      -0.00000000      -0.00000000
S        8.35079965       5.51565560      -5.57750859      -0.10960699       0.10960699       0.10960699
S        5.51565560       8.35079965      -5.57750859       0.10960699      -0.10960699       0.10960699
S        5.51565560       5.51565560      -2.74236454       0.10960699       0.10960699      -0.10960699
S        2.80421753       2.80421753      -2.74236454      -0.10960699      -0.10960699      -0.10960699
S        2.74236459       5.57750864      -5.51565565       0.10960699      -0.10960699      -0.10960699
S        5.57750864       2.74236459      -5.51565565      -0.10960699       0.10960699      -0.10960699
S        5.57750864       5.57750864      -8.35079970      -0.10960699      -0.10960699       0.10960699
S        8.28894671       8.28894671      -8.35079970       0.10960699       0.10960699       0.10960699
14
Lattice="5.56703602 5.56703602 0.0 5.56703602 0.0 -5.56703602 -0.0 5.56703602 -5.56703602" Properties=species:S:1:pos:R:3:forces:R:3 e_per_atom_relaxed=-6.344728767142857 mp_id=mp-1001015 energy_per_atom=-6.336516274285715 ef_per_atom_relaxed=-6.344728767142857 corrected_total_energy=-88.71122784 ef_per_atom=-1.9454577905952388 task_id=mp-1001015 calc_id=1 ionic_step=2 energy=-84.68722784 stress="0.0065703643177265365 0.0 0.0 0.0 0.0065703643177265365 -0.0 0.0 -0.0 0.0065703643177265365" pbc="T T T"
Y        5.56703602       2.78351801      -2.78351801      -0.00000000      -0.00000000       0.00000000
Y        2.78351801       5.56703602      -2.78351801      -0.00000000      -0.00000000      -0.00000000
Y        2.78351801       2.78351801       0.00000000       0.00000000      -0.00000000      -0.00000000
Y        0.00000000       0.00000000       0.00000000      -0.00000000       0.00000000       0.00000000
Zn       6.95879502       6.95879502      -4.17527701       0.00000000       0.00000000      -0.00000000
Zn       4.17527701       4.17527701      -6.95879502       0.00000000       0.00000000       0.00000000
S        8.39369834       5.52389171      -5.61018033      -0.22419229       0.22419229       0.22419229
S        5.52389171       8.39369834      -5.61018033       0.22419229      -0.22419229       0.22419229
S        5.52389171       5.52389171      -2.74037370       0.22419229       0.22419229      -0.22419229
S        2.82666232       2.82666232      -2.74037370      -0.22419229      -0.22419229      -0.22419229
S        2.74037370       5.61018033      -5.52389171       0.22419229      -0.22419229      -0.22419229
S        5.61018033       2.74037370      -5.52389171      -0.22419229       0.22419229      -0.22419229
S        5.61018033       5.61018033      -8.39369834      -0.22419229      -0.22419229       0.22419229
S        8.30740972       8.30740972      -8.39369834       0.22419229       0.22419229       0.22419229
14
Lattice="5.84474578 5.84474578 0.0 5.84474578 0.0 -5.84474578 -0.0 5.84474578 -5.84474578" Properties=species:S:1:pos:R:3:forces:R:3 e_per_atom_relaxed=-6.344728767142857 mp_id=mp-1001015 energy_per_atom=-6.195694678571429 ef_per_atom_relaxed=-6.344728767142857 corrected_total_energy=-86.7397255 ef_per_atom=-1.804636194880953 task_id=mp-1001015 calc_id=1 ionic_step=1 energy=-82.7157255 stress="0.054010377555498035 0.0 -0.0 0.0 0.054010377555498035 0.0 -0.0 0.0 0.054010377555498035" pbc="T T T"
Y        5.84474578       2.92237289      -2.92237289      -0.00000000      -0.00000000      -0.00000000
Y        2.92237289       5.84474578      -2.92237289      -0.00000000       0.00000000      -0.00000000
Y        2.92237289       2.92237289       0.00000000       0.00000000       0.00000000       0.00000000
Y        0.00000000       0.00000000       0.00000000      -0.00000000       0.00000000       0.00000000
Zn       7.30593223       7.30593223      -4.38355934       0.00000000      -0.00000000      -0.00000000
Zn       4.38355934       4.38355934      -7.30593223      -0.00000000       0.00000000       0.00000000
S        8.77642193       5.83544258      -5.85404904       0.44290932      -0.44290932      -0.44290932
S        5.83544258       8.77642193      -5.85404904      -0.44290932       0.44290932      -0.44290932
S        5.83544258       5.83544258      -2.91306969      -0.44290932      -0.44290932       0.44290932
S        2.93167615       2.93167615      -2.91306969       0.44290932       0.44290932       0.44290932
S        2.91306963       5.85404898      -5.83544252      -0.44290932       0.44290932       0.44290932
S        5.85404898       2.91306963      -5.83544252       0.44290932      -0.44290932       0.44290932
S        5.85404898       5.85404898      -8.77642187       0.44290932       0.44290932      -0.44290932
S        8.75781541       8.75781541      -8.77642187      -0.44290932      -0.44290932      -0.44290932
14
Lattice="5.26 5.26 0.0 5.26 0.0 -5.26 0.0 5.26 -5.26" Properties=species:S:1:pos:R:3:forces:R:3 e_per_atom_relaxed=-6.344728767142857 mp_id=mp-1001015 energy_per_atom=-6.103274052142857 ef_per_atom_relaxed=-6.344728767142857 corrected_total_energy=-85.44583673 ef_per_atom=-1.712215568452381 task_id=mp-1001015 calc_id=1 ionic_step=0 energy=-81.42183673 stress="-0.11083863282272158 -0.0 -0.0 -0.0 -0.11083863282272158 0.0 -0.0 0.0 -0.11083863282272158" pbc="T T T"
Y        5.26000000       2.63000000      -2.63000000       0.00000000       0.00000000      -0.00000000
Y        2.63000000       5.26000000      -2.63000000      -0.00000000      -0.00000000      -0.00000000
Y        2.63000000       2.63000000       0.00000000       0.00000000      -0.00000000      -0.00000000
Y        0.00000000       0.00000000       0.00000000      -0.00000000       0.00000000       0.00000000
Zn       6.57500000       6.57500000      -3.94500000      -0.00000000      -0.00000000       0.00000000
Zn       3.94500000       3.94500000      -6.57500000       0.00000000       0.00000000      -0.00000000
S        7.97416000       5.17584000      -5.34416000      -1.57096504       1.57096504       1.57096504
S        5.17584000       7.97416000      -5.34416000       1.57096504      -1.57096504       1.57096504
S        5.17584000       5.17584000      -2.54584000       1.57096504       1.57096504      -1.57096504
S        2.71416000       2.71416000      -2.54584000      -1.57096504      -1.57096504      -1.57096504
S        2.54584000       5.34416000      -5.17584000       1.57096504      -1.57096504      -1.57096504
S        5.34416000       2.54584000      -5.17584000      -1.57096504       1.57096504      -1.57096504
S        5.34416000       5.34416000      -7.97416000      -1.57096504      -1.57096504       1.57096504
S        7.80584000       7.80584000      -7.97416000       1.57096504       1.57096504       1.57096504
14
Lattice="0.0 5.516157 5.516157 5.516157 0.0 5.516157 5.516157 5.516157 0.0" Properties=species:S:1:pos:R:3:forces:R:3:magmoms:R:1 bandgap=0.4035000000000002 e_per_atom_relaxed=-6.344728767142857 mp_id=mp-1001015 energy_per_atom=-6.344728767142857 ef_per_atom_relaxed=-6.344728767142857 corrected_total_energy=-88.82620274 ef_per_atom=-1.9536702834523811 task_id=mp-1809168 calc_id=0 ionic_step=0 energy=-84.80220274 stress="-0.000372585295684774 -1.7040568215486474e-07 -1.6598669369373935e-07 -1.7040568215486474e-07 -0.00037303214404762336 -1.9026616419342524e-07 -1.6598669369373935e-07 -1.9026616419342524e-07 -0.00037260817081572037" pbc="T T T"
Y        6.89519625       4.13711775       4.13711775       0.00000032      -0.00000005      -0.00000033      -0.00000000
Y        4.13711775       6.89519625       4.13711775      -0.00000017       0.00000008      -0.00000027      -0.00000000
Y        4.13711775       4.13711775       6.89519625      -0.00000035      -0.00000012       0.00000034      -0.00000000
Y        6.89519625       6.89519625       6.89519625       0.00000029       0.00000015       0.00000032       0.00000000
Zn       2.75807850       2.75807850       2.75807850      -0.00005106      -0.00005427      -0.00005173       0.00000000
Zn       0.00000000       0.00000000       0.00000000       0.00005105       0.00005421       0.00005183       0.00000000
S        4.15379861       6.87850988       6.87850988       0.00949911      -0.00944883      -0.00944964       0.00000000
S        6.87850988       4.15379861       6.87850988      -0.00945033       0.00949789      -0.00945102       0.00000000
S        6.87850988       6.87850988       4.15379861      -0.00945023      -0.00944976       0.00949917       0.00000000
S        4.15379861       4.15379861       4.15379861       0.00950192       0.00949959       0.00950097       0.00000000
S        9.63659389       6.91188262       6.91188262      -0.00950829       0.00945802       0.00945902       0.00000000
S        6.91188262       9.63659389       6.91188262       0.00945934      -0.00950728       0.00946015       0.00000000
S        6.91188262       6.91188262       9.63659389       0.00945961       0.00945918      -0.00950866       0.00000000
S        9.63659389       9.63659389       9.63659389      -0.00951120      -0.00950880      -0.00951015       0.00000000
14
Lattice="0.0 5.59284695 5.59284695 5.59299704 0.0 5.59284695 5.59299704 5.59284695 0.0" Properties=species:S:1:pos:R:3:forces:R:3:magmoms:R:1 bandgap=1.9291999999999998 e_per_atom_relaxed=-6.613292906428571 mp_id=mp-1001024 energy_per_atom=-6.613225337857143 ef_per_atom_relaxed=-6.613292906428571 corrected_total_energy=-92.58515473 ef_per_atom=-2.1739618096428575 task_id=mp-1001024 calc_id=0 ionic_step=2 energy=-88.56115473 stress="-0.00021901851234402934 -0.0 -0.0 -0.0 -0.00023274736078335862 -0.0 -0.0 -0.0 -0.00023274736078335862" pbc="T T T"
Y        4.19474778       6.99105869       4.19463521       0.00000000      -0.00000000       0.00000000      -0.00000000
Y        4.19474778       4.19463521       6.99105869      -0.00000000      -0.00000000      -0.00000000       0.00000000
Y        6.99124630       4.19463521       4.19463521       0.00000000      -0.00000000       0.00000000       0.00000000
Y        6.99124630       6.99105869       6.99105869      -0.00000000       0.00000000       0.00000000       0.00000000
Mg       0.00000000       0.00000000       0.00000000      -0.00000000      -0.00000000      -0.00000000       0.00000000
Mg       2.79649852       2.79642348       2.79642348       0.00000000       0.00000000       0.00000000       0.00000000
S        4.24605178       4.24591871       4.24591871       0.00206871       0.00192022       0.00192022      -0.00000000
S        4.24605178       6.93977519       6.93977519       0.00206871      -0.00192022      -0.00192022      -0.00000000
S        6.93994230       4.24591871       6.93977519      -0.00206871       0.00192022      -0.00192022       0.00000000
S        6.93994230       6.93977519       4.24591871      -0.00206871      -0.00192022       0.00192022      -0.00000000
S        7.04255030       7.04234219       9.73619866       0.00206871       0.00192022      -0.00192022      -0.00000000
S        7.04255030       9.73619866       7.04234219       0.00206871      -0.00192022       0.00192022       0.00000000
S        9.73644082       7.04234219       7.04234219      -0.00206871       0.00192022       0.00192022      -0.00000000
S        9.73644082       9.73619866       9.73619866      -0.00206871      -0.00192022      -0.00192022      -0.00000000
14
Lattice="0.0 5.58939828 5.58939828 5.58950641 0.0 5.58939828 5.58950641 5.58939828 0.0" Properties=species:S:1:pos:R:3:forces:R:3 e_per_atom_relaxed=-6.613292906428571 mp_id=mp-1001024 energy_per_atom=-6.613094541428572 ef_per_atom_relaxed=-6.613292906428571 corrected_total_energy=-92.58332358 ef_per_atom=-2.173831013214286 task_id=mp-1001024 calc_id=0 ionic_step=1 energy=-88.55932358 stress="-0.0001369189620870044 -0.0 -0.0 -0.0 -0.00014523071737485187 -0.0 -0.0 -0.0 -0.00014523071737485187" pbc="T T T"
Y        4.19212981       6.98674785       4.19204871      -0.00000000      -0.00000000       0.00000000
Y        4.19212981       4.19204871       6.98674785       0.00000000       0.00000000      -0.00000000
Y        6.98688301       4.19204871       4.19204871      -0.00000000       0.00000000      -0.00000000
Y        6.98688301       6.98674785       6.98674785       0.00000000       0.00000000      -0.00000000
Mg       0.00000000       0.00000000       0.00000000       0.00000000      -0.00000000      -0.00000000
Mg       2.79475321       2.79469914       2.79469914       0.00000000       0.00000000       0.00000000
S        4.23943995       4.23933239       4.23933239       0.04259720       0.04255129       0.04255129
S        4.23943995       6.93946422       6.93946422       0.04259720      -0.04255129      -0.04255129
S        6.93957293       4.23933239       6.93946422      -0.04259720       0.04255129      -0.04255129
S        6.93957293       6.93946422       4.23933239      -0.04259720      -0.04255129       0.04255129
S        7.03419310       7.03403148       9.73416331       0.04259720       0.04255129      -0.04255129
S        7.03419310       9.73416331       7.03403148       0.04259720      -0.04255129       0.04255129
S        9.73432608       7.03403148       7.03403148      -0.04259720       0.04255129       0.04255129
S        9.73432608       9.73416331       9.73416331      -0.04259720      -0.04255129      -0.04255129
14
Lattice="0.0 5.5858392 5.5858392 5.58590404 0.0 5.5858392 5.58590404 5.5858392 0.0" Properties=species:S:1:pos:R:3:forces:R:3 e_per_atom_relaxed=-6.613292906428571 mp_id=mp-1001024 energy_per_atom=-6.612605547142857 ef_per_atom_relaxed=-6.613292906428571 corrected_total_energy=-92.57647766 ef_per_atom=-2.1733420189285715 task_id=mp-1001024 calc_id=0 ionic_step=0 energy=-88.55247766 stress="-0.0005368979916649149 -0.0 -0.0 -0.0 -0.0005304510495076624 -0.0 -0.0 -0.0 -0.0005304510495076624" pbc="T T T"
Y        4.18942803       6.98229900       4.18937940       0.00000000       0.00000000       0.00000000
Y        4.18942803       4.18937940       6.98229900       0.00000000       0.00000000       0.00000000
Y        6.98238005       4.18937940       4.18937940      -0.00000000      -0.00000000      -0.00000000
Y        6.98238005       6.98229900       6.98229900      -0.00000000      -0.00000000       0.00000000
Mg       0.00000000       0.00000000       0.00000000       0.00000000       0.00000000       0.00000000
Mg       2.79295202       2.79291960       2.79291960       0.00000000      -0.00000000      -0.00000000
S        4.23261891       4.23253766       4.23253766       0.08475276       0.08488869       0.08488869
S        4.23261891       6.93914068       6.93914068       0.08475276      -0.08488869      -0.08488869
S        6.93918911       4.23253766       6.93914068      -0.08475276       0.08488869      -0.08488869
S        6.93918911       6.93914068       4.23253766      -0.08475276      -0.08488869       0.08488869
S        7.02557099       7.02545732       9.73206034       0.08475276       0.08488869      -0.08488869
S        7.02557099       9.73206034       7.02545732       0.08475276      -0.08488869       0.08488869
S        9.73214119       7.02545732       7.02545732      -0.08475276       0.08488869       0.08488869
S        9.73214119       9.73206034       9.73206034      -0.08475276      -0.08488869      -0.08488869
14
Lattice="0.0 5.65359475 5.65359475 5.65364544 0.0 5.65359475 5.65364544 5.65359475 0.0" Properties=species:S:1:pos:R:3:forces:R:3 e_per_atom_relaxed=-6.613292906428571 mp_id=mp-1001024 energy_per_atom=-6.605151149999999 ef_per_atom_relaxed=-6.613292906428571 corrected_total_energy=-92.4721161 ef_per_atom=-2.165887621785714 task_id=mp-1001024 calc_id=1 ionic_step=1 energy=-88.4481161 stress="0.014646022314495629 -0.0 -0.0 -0.0 0.014640886432537813 -0.0 -0.0 -0.0 0.014640886432537813" pbc="T T T"
Y        4.24023408       7.06699344       4.24019606      -0.00000000       0.00000000      -0.00000000
Y        4.24023408       4.24019606       7.06699344      -0.00000000      -0.00000000       0.00000000
Y        7.06705680       4.24019606       4.24019606       0.00000000      -0.00000000      -0.00000000
Y        7.06705680       7.06699344       7.06699344       0.00000000      -0.00000000       0.00000000
Mg       0.00000000       0.00000000       0.00000000       0.00000000      -0.00000000      -0.00000000
Mg       2.82682272       2.82679737       2.82679737      -0.00000000       0.00000000       0.00000000
S        4.28205217       4.28198218       4.28198218       0.18909832       0.18871799       0.18871799
S        4.28205217       7.02520732       7.02520732       0.18909832      -0.18871799      -0.18871799
S        7.02523871       4.28198218       7.02520732      -0.18909832       0.18871799      -0.18871799
S        7.02523871       7.02520732       4.28198218      -0.18909832      -0.18871799       0.18871799
S        7.10887489       7.10877955       9.85200470       0.18909832       0.18871799      -0.18871799
S        7.10887489       9.85200470       7.10877955       0.18909832      -0.18871799       0.18871799
S        9.85206143       7.10877955       7.10877955      -0.18909832       0.18871799       0.18871799
S        9.85206143       9.85200470       9.85200470      -0.18909832      -0.18871799      -0.18871799
14
Lattice="0.0 5.484438 5.484438 5.484524 0.0 5.484438 5.484524 5.484438 0.0" Properties=species:S:1:pos:R:3:forces:R:3 e_per_atom_relaxed=-6.613292906428571 mp_id=mp-1001024 energy_per_atom=-6.594908519285715 ef_per_atom_relaxed=-6.613292906428571 corrected_total_energy=-92.32871927000001 ef_per_atom=-2.1556449910714295 task_id=mp-1001024 calc_id=1 ionic_step=0 energy=-88.30471927 stress="-0.027122115923962437 -0.0 -0.0 -0.0 -0.027128204291420405 -0.0 -0.0 -0.0 -0.027128204291420405" pbc="T T T"
Y        4.11339300       6.85554750       4.11332850       0.00000000      -0.00000000       0.00000000
Y        4.11339300       4.11332850       6.85554750      -0.00000000      -0.00000000       0.00000000
Y        6.85565500       4.11332850       4.11332850       0.00000000       0.00000000      -0.00000000
Y        6.85565500       6.85554750       6.85554750       0.00000000      -0.00000000       0.00000000
Mg       0.00000000       0.00000000       0.00000000      -0.00000000      -0.00000000      -0.00000000
Mg       2.74226200       2.74221900       2.74221900       0.00000000       0.00000000       0.00000000
S        4.15869517       4.15859705       4.15859705      -0.09814962      -0.09810124      -0.09810124
S        4.15869517       6.81027895       6.81027895      -0.09814962       0.09810124       0.09810124
S        6.81035283       4.15859705       6.81027895       0.09814962      -0.09810124       0.09810124
S        6.81035283       6.81027895       4.15859705       0.09814962       0.09810124      -0.09810124
S        6.90095717       6.90081605       9.55249795      -0.09814962      -0.09810124       0.09810124
S        6.90095717       9.55249795       6.90081605      -0.09814962       0.09810124      -0.09810124
S        9.55261483       6.90081605       6.90081605       0.09814962      -0.09810124      -0.09810124
S        9.55261483       9.55249795       9.55249795       0.09814962       0.09810124       0.09810124
14
Lattice="0.0 5.592897 5.592897 5.592897 0.0 5.592897 5.592897 5.592897 0.0" Properties=species:S:1:pos:R:3:forces:R:3:magmoms:R:1 bandgap=0.2525000000000004 e_per_atom_relaxed=-6.613292906428571 mp_id=mp-1001024 energy_per_atom=-6.613292906428571 ef_per_atom_relaxed=-6.613292906428571 corrected_total_energy=-92.58610069 ef_per_atom=-2.1740293782142857 task_id=mp-1838034 calc_id=0 ionic_step=0 energy=-88.56210069 stress="-5.7753351783274264e-05 -1.1311174913381937e-06 -1.2733739673353247e-06 -1.1311174913381937e-06 -5.754580288031126e-05 -1.2942143663066489e-06 -1.2733739673353247e-06 -1.2942143663066489e-06 -5.777517209917835e-05" pbc="T T T"
Y        4.19467275       6.99112125       4.19467275       0.00000000      -0.00000000      -0.00000000       0.00000000
Y        4.19467275       4.19467275       6.99112125      -0.00000000      -0.00000000      -0.00000000       0.00000000
Y        6.99112125       4.19467275       4.19467275      -0.00000000      -0.00000000      -0.00000000       0.00000000
Y        6.99112125       6.99112125       6.99112125      -0.00000000      -0.00000000      -0.00000000       0.00000000
Mg       0.00000000       0.00000000       0.00000000      -0.00000030      -0.00000122      -0.00000093      -0.00000000
Mg       2.79644850       2.79644850       2.79644850       0.00000030       0.00000122       0.00000093      -0.00000000
S        4.24595962       4.24595962       4.24595962      -0.00347698      -0.00348369      -0.00348065       0.00000000
S        4.24595962       6.93982879       6.93982879      -0.00346929       0.00352925       0.00352347       0.00000000
S        6.93982879       4.24595962       6.93982879       0.00352706      -0.00347620       0.00352367      -0.00000000
S        6.93982879       6.93982879       4.24595962       0.00352415       0.00352886      -0.00347041      -0.00000000
S        7.04241371       7.04241371       9.73628288      -0.00352415      -0.00352886       0.00347041      -0.00000000
S        7.04241371       9.73628288       7.04241371      -0.00352706       0.00347620      -0.00352367      -0.00000000
S        9.73628288       7.04241371       7.04241371       0.00346929      -0.00352925      -0.00352347       0.00000000
S        9.73628288       9.73628288       9.73628288       0.00347698       0.00348369       0.00348065       0.00000000
14
Lattice="0.0 5.72644796 5.73525959 5.72647841 0.0 5.73525959 5.72647841 5.72644796 0.0" Properties=species:S:1:pos:R:3:forces:R:3:magmoms:R:1 bandgap=1.2049999999999996 e_per_atom_relaxed=-3.985792137857143 mp_id=mp-1001034 energy_per_atom=-3.98578906 ef_per_atom_relaxed=-3.985792137857143 corrected_total_energy=-55.80104684 ef_per_atom=-0.9738020189583332 task_id=mp-1001034 calc_id=0 ionic_step=8 energy=-52.02504684 stress="-0.0004990599223703265 -0.0 -0.0 -0.0 -0.0004996723704533038 -0.0 -0.0 -0.0 -0.0002941593728690614" pbc="T T T"
Mg       0.00000000       0.00000000       0.00000000       0.00000000       0.00000000       0.00000000      -0.00000000
Mg       2.86323921       2.86322398       2.86762980      -0.00000000      -0.00000000       0.00000000      -0.00000000
In       4.29485881       4.29483597       7.16907449      -0.00000000      -0.00000000       0.00000000      -0.00000000
In       4.29485881       7.15805995       4.30144469      -0.00000000       0.00000000       0.00000000      -0.00000000
In       7.15809801       4.29483597       4.30144469      -0.00000000      -0.00000000       0.00000000      -0.00000000
In       7.15809801       7.15805995       7.16907449       0.00000000      -0.00000000       0.00000000      -0.00000000
Se       4.37616650       4.37611419       4.38600783       0.00803988       0.00815337       0.00471758       0.00000000
Se       4.37616650       7.07678178       7.08451141       0.00803988      -0.00815337      -0.00471758       0.00000000
Se       7.07679038       4.37611419       7.08451141      -0.00803988       0.00815337      -0.00471758       0.00000000
Se       7.07679038       7.07678178       4.38600783      -0.00803988      -0.00815337       0.00471758       0.00000000
Se       7.23940565       9.94000571       7.25363756       0.00803988      -0.00815337       0.00471758       0.00000000
Se       7.23940565       7.23933812       9.95214115       0.00803988       0.00815337      -0.00471758       0.00000000
Se       9.94002953       7.23933812       7.25363756      -0.00803988       0.00815337       0.00471758       0.00000000
Se       9.94002953       9.94000571       9.95214115      -0.00803988      -0.00815337      -0.00471758       0.00000000
14
Lattice="0.0 5.7323114 5.74041108 5.73243986 0.0 5.74041108 5.73243986 5.7323114 0.0" Properties=species:S:1:pos:R:3:forces:R:3 e_per_atom_relaxed=-3.985792137857143 mp_id=mp-1001034 energy_per_atom=-3.9854931492857144 ef_per_atom_relaxed=-3.985792137857143 corrected_total_energy=-55.79690409 ef_per_atom=-0.9735061082440475 task_id=mp-1001034 calc_id=0 ionic_step=7 energy=-52.02090409 stress="0.0003271733735187456 -0.0 -0.0 -0.0 0.0003207170004412038 -0.0 -0.0 -0.0 0.00040347953628059837" pbc="T T T"
Mg       0.00000000       0.00000000       0.00000000       0.00000000       0.00000000       0.00000000
Mg       2.86621993       2.86615570       2.87020554      -0.00000000      -0.00000000       0.00000000
In       4.29932990       4.29923355       7.17551385       0.00000000       0.00000000       0.00000000
In       4.29932990       7.16538925       4.30530831       0.00000000       0.00000000      -0.00000000
In       7.16554983       4.29923355       4.30530831      -0.00000000      -0.00000000      -0.00000000
In       7.16554983       7.16538925       7.17551385       0.00000000      -0.00000000      -0.00000000
Se       4.38704901       4.38692358       4.39636426      -0.05526293      -0.05524090      -0.06045381
Se       4.38704901       7.07769916       7.08445784      -0.05526293       0.05524090       0.06045381
Se       7.07783065       4.38692358       7.08445784       0.05526293      -0.05524090       0.06045381
Se       7.07783065       7.07769916       4.39636426       0.05526293       0.05524090      -0.06045381
Se       7.25326900       9.94385492       7.26656986      -0.05526293       0.05524090      -0.06045381
Se       7.25326900       7.25307934       9.95466344      -0.05526293      -0.05524090       0.06045381
Se       9.94405064       7.25307934       7.26656986       0.05526293      -0.05524090      -0.06045381
Se       9.94405064       9.94385492       9.95466344       0.05526293       0.05524090       0.06045381
14
Lattice="0.0 5.73660274 5.74418135 5.73680293 0.0 5.74418135 5.73680293 5.73660274 0.0" Properties=species:S:1:pos:R:3:forces:R:3 e_per_atom_relaxed=-3.985792137857143 mp_id=mp-1001034 energy_per_atom=-3.9848388814285713 ef_per_atom_relaxed=-3.985792137857143 corrected_total_energy=-55.78774434 ef_per_atom=-0.9728518403869045 task_id=mp-1001034 calc_id=0 ionic_step=6 energy=-52.01174434 stress="0.00032171873144836246 -0.0 -0.0 -0.0 0.0003119645883675599 -0.0 -0.0 -0.0 0.00024141533148003857" pbc="T T T"
Mg       0.00000000       0.00000000       0.00000000       0.00000000       0.00000000       0.00000000
Mg       2.86840146       2.86830137       2.87209067       0.00000000       0.00000000      -0.00000000
In       4.30260220       4.30245206       7.18022669       0.00000000       0.00000000       0.00000000
In       4.30260220       7.17075343       4.30813601      -0.00000000       0.00000000      -0.00000000
In       7.17100366       4.30245206       4.30813601      -0.00000000       0.00000000       0.00000000
In       7.17100366       7.17075343       7.18022669       0.00000000      -0.00000000       0.00000000
Se       4.39501859       4.39483953       4.40394827      -0.10052335      -0.10055125      -0.10183799
Se       4.39501859       7.07836595       7.08441443      -0.10052335       0.10055125       0.10183799
Se       7.07858727       4.39483953       7.08441443       0.10052335      -0.10055125       0.10183799
Se       7.07858727       7.07836595       4.40394827       0.10052335       0.10055125      -0.10183799
Se       7.26342006       9.94666732       7.27603894      -0.10052335       0.10055125      -0.10183799
Se       7.26342006       7.26314090       9.95650511      -0.10052335      -0.10055125       0.10183799
Se       9.94698873       7.26314090       7.27603894       0.10052335      -0.10055125      -0.10183799
Se       9.94698873       9.94666732       9.95650511       0.10052335       0.10055125       0.10183799
14
Lattice="0.0 5.71931802 5.72702155 5.71950725 0.0 5.72702155 5.71950725 5.71931802 0.0" Properties=species:S:1:pos:R:3:forces:R:3 e_per_atom_relaxed=-3.985792137857143 mp_id=mp-1001034 energy_per_atom=-3.984466437857143 ef_per_atom_relaxed=-3.985792137857143 corrected_total_energy=-55.78253013 ef_per_atom=-0.9724793968154761 task_id=mp-1001034 calc_id=0 ionic_step=2 energy=-52.00653013 stress="-0.0017097252228235737 -0.0 -0.0 -0.0 -0.0017373462475130383 -0.0 -0.0 -0.0 -0.0017137579430094255" pbc="T T T"
Mg       0.00000000       0.00000000       0.00000000      -0.00000000       0.00000000       0.00000000
Mg       2.85975363       2.85965901       2.86351077       0.00000000       0.00000000       0.00000000
In       4.28963044       4.28948852       7.15877694       0.00000000      -0.00000000       0.00000000
In       4.28963044       7.14914753       4.29526616       0.00000000       0.00000000       0.00000000
In       7.14938406       4.28948852       4.29526616      -0.00000000       0.00000000       0.00000000
In       7.14938406       7.14914753       7.15877694       0.00000000       0.00000000       0.00000000
Se       4.38219992       4.38202931       4.39118530      -0.13140272      -0.13081285      -0.13417826
Se       4.38219992       7.05660673       7.06285780      -0.13140272       0.13081285       0.13417826
Se       7.05681458       4.38202931       7.06285780       0.13140272      -0.13081285       0.13417826
Se       7.05681458       7.05660673       4.39118530       0.13140272       0.13081285      -0.13417826
Se       7.24195354       9.91626574       7.25469607      -0.13140272       0.13081285      -0.13417826
Se       7.24195354       7.24168832       9.92636858      -0.13140272      -0.13081285       0.13417826
Se       9.91656821       7.24168832       7.25469607       0.13140272      -0.13081285      -0.13417826
Se       9.91656821       9.91626574       9.92636858       0.13140272       0.13081285       0.13417826
14
Lattice="0.0 5.92892995 5.93511863 5.92925215 0.0 5.93511863 5.92925215 5.92892995 0.0" Properties=species:S:1:pos:R:3:forces:R:3 e_per_atom_relaxed=-3.985792137857143 mp_id=mp-1001034 energy_per_atom=-3.9425735435714286 ef_per_atom_relaxed=-3.985792137857143 corrected_total_energy=-55.19602961 ef_per_atom=-0.9305865025297617 task_id=mp-1001034 calc_id=0 ionic_step=0 energy=-51.42002961 stress="0.02724552252435414 -0.0 -0.0 -0.0 0.02722972981481668 -0.0 -0.0 -0.0 0.027004753825702558" pbc="T T T"
Mg       0.00000000       0.00000000       0.00000000      -0.00000000       0.00000000       0.00000000
Mg       2.96462607       2.96446497       2.96755931      -0.00000000      -0.00000000      -0.00000000
In       4.44693911       4.44669746       7.41889829      -0.00000000      -0.00000000      -0.00000000
In       4.44693911       7.41116244       4.45133897      -0.00000000       0.00000000      -0.00000000
In       7.41156519       4.44669746       4.45133897      -0.00000000       0.00000000       0.00000000
In       7.41156519       7.41116244       7.41889829      -0.00000000      -0.00000000      -0.00000000
Se       4.53768940       4.53741703       4.54599563       0.12022208       0.12019548       0.10946984
Se       4.53768940       7.32044287       7.32424163       0.12022208      -0.12019548      -0.10946984
Se       7.32081490       4.53741703       7.32424163      -0.12022208       0.12019548      -0.10946984
Se       7.32081490       7.32044287       4.54599563      -0.12022208      -0.12019548       0.10946984
Se       7.50231547      10.28490785       7.51355494       0.12022208      -0.12019548       0.10946984
Se       7.50231547       7.50188200      10.29180095       0.12022208       0.12019548      -0.10946984
Se      10.28544098       7.50188200       7.51355494      -0.12022208       0.12019548       0.10946984
Se      10.28544098      10.28490785      10.29180095      -0.12022208      -0.12019548      -0.10946984
14
Lattice="0.0 5.95123063 5.97308887 5.96038332 0.0 5.97308887 5.96038332 5.95123063 0.0" Properties=species:S:1:pos:R:3:forces:R:3 e_per_atom_relaxed=-3.985792137857143 mp_id=mp-1001034 energy_per_atom=-3.9286929 ef_per_atom_relaxed=-3.985792137857143 corrected_total_energy=-55.00170060000001 ef_per_atom=-0.9167058589583333 task_id=mp-1001034 calc_id=1 ionic_step=1 energy=-51.2257006 stress="0.029415522688420948 -0.0 -0.0 -0.0 0.029484970905649607 -0.0 -0.0 -0.0 0.02961209292038622" pbc="T T T"
Mg       0.00000000       0.00000000       0.00000000      -0.00000000      -0.00000000       0.00000000
Mg       2.98019166       2.97561532       2.98654443       0.00000000       0.00000000       0.00000000
In       4.47028749       4.46342297       7.46636109      -0.00000000       0.00000000      -0.00000000
In       4.47028749       7.43903829       4.47981665      -0.00000000       0.00000000      -0.00000000
In       7.45047915       4.46342297       4.47981665      -0.00000000      -0.00000000       0.00000000
In       7.45047915       7.43903829       7.46636109       0.00000000       0.00000000      -0.00000000
Se       4.55961266       4.55233727       4.57188841       0.16327888       0.16126177       0.15450006
Se       4.55961266       7.35012399       7.37428933       0.16327888      -0.16126177      -0.15450006
Se       7.36115398       4.55233727       7.37428933      -0.16327888       0.16126177      -0.15450006
Se       7.36115398       7.35012399       4.57188841      -0.16327888      -0.16126177       0.15450006
Se       7.53980432      10.32573930       7.55843285       0.16327888      -0.16126177       0.15450006
Se       7.53980432       7.52795259      10.36083376       0.16327888       0.16126177      -0.15450006
Se      10.34134564       7.52795259       7.55843285      -0.16327888       0.16126177       0.15450006
Se      10.34134564      10.32573930      10.36083376      -0.16327888      -0.16126177      -0.15450006
12
Lattice="3.36162156 0.0 3.35606801 3.36162156 0.0 -3.35606801 0.0 6.58336481 0.0" Properties=species:S:1:pos:R:3:forces:R:3:magmoms:R:1 bandgap=5.9998000000000005 e_per_atom_relaxed=-6.663820256666667 mp_id=mp-1001080 energy_per_atom=-6.660696035833333 ef_per_atom_relaxed=-6.663820256666667 corrected_total_energy=-79.92835243 ef_per_atom=-1.5180180481250005 task_id=mp-1001080 calc_id=0 ionic_step=5 energy=-75.80635243 stress="0.003598847989131761 -0.0 -0.0 -0.0 0.0020752241399826575 -0.0 -0.0 -0.0 0.001282455525392722" pbc="T T T"
H        3.36162156       1.37125663      -0.55913187       0.00000000      -0.02011402       0.01382247       0.00000000
H        3.36162156       5.21210818      -0.55913187       0.00000000       0.02011402       0.01382247      -0.00000000
H        3.36162156       4.66293903      -2.79693614       0.00000000      -0.02011402      -0.01382247      -0.00000000
H        3.36162156       1.92042578      -2.79693614       0.00000000       0.02011402      -0.01382247      -0.00000000
C        3.36162156       3.29168240      -0.68752000       0.00000000       0.00000000      -0.02991272       0.00000000
C        3.36162156       0.00000000      -2.66854801       0.00000000       0.00000000       0.02991272       0.00000000
O        3.36162156       3.29168240      -1.95290262       0.00000000       0.00000000      -0.00982318       0.00000000
O        3.36162156       0.00000000      -1.40316539       0.00000000       0.00000000       0.00982318       0.00000000
O        3.36162156       2.19778327       0.03668901       0.00000000      -0.01597696       0.00842789       0.00000000
O        3.36162156       4.38558154       0.03668901       0.00000000       0.01597696       0.00842789       0.00000000
O        3.36162156       5.48946567       3.31937900       0.00000000      -0.01597696      -0.00842789       0.00000000
O        3.36162156       1.09389914       3.31937900       0.00000000       0.01597696      -0.00842789       0.00000000
12
Lattice="3.36389462 0.0 3.3568581 3.36389462 0.0 -3.3568581 0.0 6.58239395 0.0" Properties=species:S:1:pos:R:3:forces:R:3 e_per_atom_relaxed=-6.663820256666667 mp_id=mp-1001080 energy_per_atom=-6.6606351875 ef_per_atom_relaxed=-6.663820256666667 corrected_total_energy=-79.92762225 ef_per_atom=-1.5179571997916668 task_id=mp-1001080 calc_id=0 ionic_step=4 energy=-75.80562225 stress="0.0010780151311517627 -0.0 -0.0 -0.0 0.00029805805040492576 -0.0 -0.0 -0.0 0.0006748468089991992" pbc="T T T"
H        3.36389462       1.37402096      -0.56020544       0.00000000      -0.05828457       0.01967056
H        3.36389462       5.20837299      -0.56020544       0.00000000       0.05828457       0.01967056
H        3.36389462       4.66521793      -2.79665266       0.00000000      -0.05828457      -0.01967056
H        3.36389462       1.91717602      -2.79665266       0.00000000       0.05828457      -0.01967056
C        3.36389462       3.29119698      -0.68800740       0.00000000       0.00000000       0.01977319
C        3.36389462       0.00000000      -2.66885070       0.00000000       0.00000000      -0.01977319
O        3.36389462       3.29119698      -1.95294485       0.00000000       0.00000000       0.00104051
O        3.36389462       0.00000000      -1.40391325       0.00000000       0.00000000      -0.00104051
O        3.36389462       2.19755690       0.03757083       0.00000000       0.01767279      -0.02913965
O        3.36389462       4.38483705       0.03757083       0.00000000      -0.01767279      -0.02913965
O        3.36389462       5.48875388       3.31928727       0.00000000       0.01767279       0.02913965
O        3.36389462       1.09364007       3.31928727       0.00000000      -0.01767279       0.02913965
12
Lattice="3.36202341 0.0 3.35851032 3.36202341 0.0 -3.35851032 0.0 6.59123371 0.0" Properties=species:S:1:pos:R:3:forces:R:3 e_per_atom_relaxed=-6.663820256666667 mp_id=mp-1001080 energy_per_atom=-6.660281456666667 ef_per_atom_relaxed=-6.663820256666667 corrected_total_energy=-79.92337748 ef_per_atom=-1.5176034689583333 task_id=mp-1001080 calc_id=0 ionic_step=1 energy=-75.80137748 stress="0.00327303753651178 -0.0 -0.0 -0.0 0.008669105802495554 -0.0 -0.0 -0.0 0.005946367408134383" pbc="T T T"
H        3.36202341       1.37336040      -0.55990082       0.00000000      -0.02573225       0.02594256
H        3.36202341       5.21787331      -0.55990082       0.00000000       0.02573225       0.02594256
H        3.36202341       4.66897725      -2.79860950       0.00000000      -0.02573225      -0.02594256
H        3.36202341       1.92225646      -2.79860950       0.00000000       0.02573225      -0.02594256
C        3.36202341       3.29561686      -0.69054573       0.00000000       0.00000000       0.20208872
C        3.36202341       0.00000000      -2.66796459       0.00000000       0.00000000      -0.20208872
O        3.36202341       3.29561686      -1.95596860       0.00000000       0.00000000       0.11807777
O        3.36202341       0.00000000      -1.40254172       0.00000000       0.00000000      -0.11807777
O        3.36202341       2.19680092       0.03906868       0.00000000       0.27080846      -0.17806299
O        3.36202341       4.39443279       0.03906868       0.00000000      -0.27080846      -0.17806299
O        3.36202341       5.49241777       3.31944164       0.00000000       0.27080846       0.17806299
O        3.36202341       1.09881594       3.31944164       0.00000000      -0.27080846       0.17806299
12
Lattice="3.35965611 0.0 3.35129414 3.35965611 0.0 -3.35129414 0.0 6.5745505 0.0" Properties=species:S:1:pos:R:3:forces:R:3 e_per_atom_relaxed=-6.663820256666667 mp_id=mp-1001080 energy_per_atom=-6.660381441666666 ef_per_atom_relaxed=-6.663820256666667 corrected_total_energy=-79.9245773 ef_per_atom=-1.5177034539583332 task_id=mp-1001080 calc_id=1 ionic_step=1 energy=-75.8025773 stress="0.0015237961460085236 -0.0 -0.0 -0.0 -0.007242247820472004 -0.0 -0.0 -0.0 -0.005095798287159728" pbc="T T T"
H        3.35965611       1.37079233      -0.55894057       0.00000000      -0.05052416       0.00173047
H        3.35965611       5.20375817      -0.55894057       0.00000000       0.05052416       0.00173047
H        3.35965611       4.65806758      -2.79235357       0.00000000      -0.05052416      -0.00173047
H        3.35965611       1.91648292      -2.79235357       0.00000000       0.05052416      -0.00173047
C        3.35965611       3.28727525      -0.68337023       0.00000000       0.00000000      -0.26749187
C        3.35965611       0.00000000      -2.66792391       0.00000000       0.00000000       0.26749187
O        3.35965611       3.28727525      -1.94844757       0.00000000       0.00000000      -0.15475571
O        3.35965611       0.00000000      -1.40284657       0.00000000       0.00000000       0.15475571
O        3.35965611       2.19785264       0.03547104       0.00000000      -0.28239681       0.19596880
O        3.35965611       4.37669786       0.03547104       0.00000000       0.28239681       0.19596880
O        3.35965611       5.48512789       3.31582310       0.00000000      -0.28239681      -0.19596880
O        3.35965611       1.08942261       3.31582310       0.00000000       0.28239681      -0.19596880
12
Lattice="3.36875 0.0 3.3603 3.36875 0.0 -3.3603 0.0 6.5826 0.0" Properties=species:S:1:pos:R:3:forces:R:3 e_per_atom_relaxed=-6.663820256666667 mp_id=mp-1001080 energy_per_atom=-6.660572550833333 ef_per_atom_relaxed=-6.663820256666667 corrected_total_energy=-79.92687061 ef_per_atom=-1.5178945631249996 task_id=mp-1001080 calc_id=1 ionic_step=0 energy=-75.80487061 stress="0.004505643539097135 -0.0 -0.0 -0.0 0.0020410212629161846 -0.0 -0.0 -0.0 0.0044732503314281295" pbc="T T T"
H        3.36875000       1.37717866      -0.56147253       0.00000000      -0.09759072       0.02134930
H        3.36875000       5.20542134      -0.56147253       0.00000000       0.09759072       0.02134930
H        3.36875000       4.66847866      -2.79882747       0.00000000      -0.09759072      -0.02134930
H        3.36875000       1.91412134      -2.79882747       0.00000000       0.09759072      -0.02134930
C        3.36875000       3.29130000      -0.69003761       0.00000000       0.00000000       0.10013913
C        3.36875000       0.00000000      -2.67026240       0.00000000       0.00000000      -0.10013913
O        3.36875000       3.29130000      -1.95451849       0.00000000       0.00000000       0.01730635
O        3.36875000       0.00000000      -1.40578150       0.00000000       0.00000000      -0.01730635
O        3.36875000       2.19786431       0.03824021       0.00000000       0.05553758      -0.05542490
O        3.36875000       4.38473569       0.03824021       0.00000000      -0.05553758      -0.05542490
O        3.36875000       5.48916431       3.32205979       0.00000000       0.05553758       0.05542490
O        3.36875000       1.09343569       3.32205979       0.00000000      -0.05553758       0.05542490
12
Lattice="3.356068 -3.361622 0.0 3.356068 3.361622 0.0 0.0 0.0 6.583365" Properties=species:S:1:pos:R:3:forces:R:3:magmoms:R:1 bandgap=5.9017 e_per_atom_relaxed=-6.663820256666667 mp_id=mp-1001080 energy_per_atom=-6.663820256666666 ef_per_atom_relaxed=-6.663820256666667 corrected_total_energy=-79.96584308 ef_per_atom=-1.5211422689583334 task_id=mp-1405033 calc_id=0 ionic_step=0 energy=-75.84384308 stress="-0.0002854611745436849 -0.0 0.0 -0.0 0.00032955814805009045 -0.0 0.0 -0.0 0.0011040284367130368" pbc="T T T"
H        4.47496765       0.00000000       3.56626807       0.02812630       0.00000000       0.00422667       0.00000000
H        4.47496765       0.00000000       6.30877943       0.02812630       0.00000000      -0.00422667       0.00000000
H        2.23716835       0.00000000       0.27458557      -0.02812630      -0.00000000       0.00422667       0.00000000
H        2.23716835       0.00000000       3.01709693      -0.02812630       0.00000000      -0.00422667       0.00000000
C        4.34658462       0.00000000       1.64584125      -0.02184624       0.00000000      -0.00000000      -0.00000000
C        2.36555138       0.00000000       4.93752375       0.02184624       0.00000000       0.00000000      -0.00000000
O        3.08119932       0.00000000       1.64584125      -0.01346977      -0.00000000       0.00000000       0.00000000
O        3.63093668       0.00000000       4.93752375       0.01346977      -0.00000000      -0.00000000       0.00000000
O        5.07079054       0.00000000       2.73973976      -0.01218992       0.00000000       0.03250311      -0.00000000
O        5.07079054       0.00000000       0.55194274      -0.01218992      -0.00000000      -0.03250311      -0.00000000
O        1.64134546       0.00000000       6.03142226       0.01218992       0.00000000       0.03250311      -0.00000000
O        1.64134546       0.00000000       3.84362524       0.01218992      -0.00000000      -0.03250311      -0.00000000
96
Lattice="-6.87164391 0.0 0.0 0.0 0.0 -9.15878714 0.0 -15.92961025 0.0" Properties=species:S:1:pos:R:3:forces:R:3:magmoms:R:1 bandgap=3.8350999999999997 e_per_atom_relaxed=-5.569216596145833 mp_id=mp-1001112 energy_per_atom=-5.563331850729166 ef_per_atom_relaxed=-5.569216596145833 corrected_total_energy=-534.0798576699999 ef_per_atom=-1.2535738346874994 task_id=mp-1001112 calc_id=0 ionic_step=32 energy=-526.35185767 stress="-0.0018811506739469708 -0.0 0.0 -0.0 -0.000798306337388293 -0.0 0.0 -0.0 -0.0007772296848135359" pbc="T T T"
Na      -5.13316164     -15.75289241      -6.72780471      -0.00224374      -0.00909347      -0.00503533       0.00000000
Na      -5.17430423      -0.17671784      -2.14841114       0.00224374       0.00909347      -0.00503533       0.00000000
Na      -1.73848227      -7.78808729      -7.01037600       0.00224374      -0.00909347       0.00503533       0.00000000
Na      -1.69733968      -8.14152296      -2.43098243      -0.00224374       0.00909347       0.00503533       0.00000000
Na      -1.73848227      -0.17671784      -2.43098243       0.00224374       0.00909347       0.00503533       0.00000000
Na      -1.69733968     -15.75289241      -7.01037600      -0.00224374      -0.00909347       0.00503533       0.00000000
Na      -5.13316164      -8.14152296      -2.14841114      -0.00224374       0.00909347      -0.00503533       0.00000000
Na      -5.17430423      -7.78808729      -6.72780471       0.00224374      -0.00909347      -0.00503533       0.00000000
Na      -5.20833907     -11.95123931      -9.15033926      -0.00084902      -0.00293287      -0.00028823       0.00000000
Na      -5.09912680      -3.97837094      -4.57094569       0.00084902       0.00293287      -0.00028823       0.00000000
Na      -1.66330484      -3.98643419      -4.58784145       0.00084902      -0.00293287       0.00028823       0.00000000
Na      -1.77251711     -11.94317606      -0.00844788      -0.00084902       0.00293287       0.00028823       0.00000000
Na      -1.66330484      -3.97837094      -0.00844788       0.00084902       0.00293287       0.00028823       0.00000000
Na      -1.77251711     -11.95123931      -4.58784145      -0.00084902      -0.00293287       0.00028823       0.00000000
Na      -5.20833907     -11.94317606      -4.57094569      -0.00084902       0.00293287      -0.00028823      -0.00000000
Na      -5.09912680      -3.98643419      -9.15033926       0.00084902      -0.00293287      -0.00028823       0.00000000
H       -0.36194508     -12.92582816      -6.64420110      -0.00392364       0.00594036      -0.00241935       0.00000000
H       -3.07387687      -3.00378209      -2.06480753       0.00392364      -0.00594036      -0.00241935       0.00000000
H       -6.50969883      -4.96102304      -7.09397961       0.00392364       0.00594036       0.00241935       0.00000000
H       -3.79776704     -10.96858721      -2.51458604      -0.00392364      -0.00594036       0.00241935       0.00000000
H       -6.50969883      -3.00378209      -2.51458604       0.00392364      -0.00594036       0.00241935       0.00000000
H       -3.79776704     -12.92582816      -7.09397961      -0.00392364       0.00594036       0.00241935       0.00000000
H       -0.36194508     -10.96858721      -2.06480753      -0.00392364      -0.00594036      -0.00241935       0.00000000
H       -3.07387687      -4.96102304      -6.64420110       0.00392364       0.00594036      -0.00241935       0.00000000
H       -6.56607620     -14.27106383      -4.42703944      -0.00198335       0.00319762       0.01539599       0.00000000
H       -3.74138967      -1.65854642      -9.00643301       0.00198335      -0.00319762       0.01539599       0.00000000
H       -0.30556771      -6.30625871      -0.15235413       0.00198335       0.00319762      -0.01539599       0.00000000
H       -3.13025424      -9.62335154      -4.73174770      -0.00198335      -0.00319762      -0.01539599       0.00000000
H       -0.30556771      -1.65854642      -4.73174770       0.00198335      -0.00319762      -0.01539599       0.00000000
H       -3.13025424     -14.27106383      -0.15235413      -0.00198335       0.00319762      -0.01539599       0.00000000
H       -6.56607620      -9.62335154      -9.00643301      -0.00198335      -0.00319762       0.01539599       0.00000000
H       -3.74138967      -6.30625871      -4.42703944       0.00198335       0.00319762       0.01539599       0.00000000
H       -6.57768735     -14.62188722      -0.26980541       0.02089040       0.00614217      -0.00834225      -0.00000000
H       -3.72977851      -1.30772303      -4.84919898      -0.02089040      -0.00614217      -0.00834225      -0.00000000
H       -0.29395656      -6.65708209      -4.30958816      -0.02089040       0.00614217       0.00834225      -0.00000000
H       -3.14186540      -9.27252816      -8.88898173       0.02089040      -0.00614217       0.00834225      -0.00000000
H       -0.29395656      -1.30772303      -8.88898173      -0.02089040      -0.00614217       0.00834225      -0.00000000
H       -3.14186540     -14.62188722      -4.30958816       0.02089040       0.00614217       0.00834225      -0.00000000
H       -6.57768735      -9.27252816      -4.84919898       0.02089040      -0.00614217      -0.00834225      -0.00000000
H       -3.72977851      -6.65708209      -0.26980541      -0.02089040       0.00614217      -0.00834225      -0.00000000
C       -0.02779161     -10.54366391      -6.85120892       0.00678996       0.00731996       0.00206462       0.00000000
C       -3.40803035      -5.38594634      -2.27181535      -0.00678996      -0.00731996       0.00206462       0.00000000
C       -6.84385230      -2.57885878      -6.88697179      -0.00678996       0.00731996      -0.00206462       0.00000000
C       -3.46361356     -13.35075147      -2.30757822       0.00678996      -0.00731996      -0.00206462       0.00000000
C       -6.84385230      -5.38594634      -2.30757822      -0.00678996      -0.00731996      -0.00206462       0.00000000
C       -3.46361356     -10.54366391      -6.88697179       0.00678996       0.00731996      -0.00206462       0.00000000
C       -0.02779161     -13.35075147      -2.27181535       0.00678996      -0.00731996       0.00206462       0.00000000
C       -3.40803035      -2.57885878      -6.85120892      -0.00678996       0.00731996       0.00206462       0.00000000
O       -0.08667383     -11.65822703      -7.52104873      -0.00712831      -0.03314846      -0.00931059      -0.00000000
O       -3.34914812      -4.27138322      -2.94165516       0.00712831       0.03314846      -0.00931059       0.00000000
O       -6.78497008      -3.69342191      -6.21713198       0.00712831      -0.03314846       0.00931059      -0.00000000
O       -3.52249579     -12.23618834      -1.63773841      -0.00712831       0.03314846       0.00931059       0.00000000
O       -6.78497008      -4.27138322      -1.63773841       0.00712831       0.03314846       0.00931059      -0.00000000
O       -3.52249579     -11.65822703      -6.21713198      -0.00712831      -0.03314846       0.00931059       0.00000000
O       -0.08667383     -12.23618834      -2.94165516      -0.00712831       0.03314846      -0.00931059       0.00000000
O       -3.34914812      -3.69342191      -7.52104873       0.00712831      -0.03314846      -0.00931059       0.00000000
O       -6.82612552      -9.40815095      -7.48319802       0.00629362       0.01590424       0.03469058       0.00000000
O       -3.48134034      -6.52145930      -2.90380445      -0.00629362      -0.01590424       0.03469058      -0.00000000
O       -0.04551839      -1.44334582      -6.25498269      -0.00629362       0.01590424      -0.03469058      -0.00000000
O       -3.39030357     -14.48626443      -1.67558912       0.00629362      -0.01590424      -0.03469058       0.00000000
O       -0.04551839      -6.52145930      -1.67558912      -0.00629362      -0.01590424      -0.03469058       0.00000000
O       -3.39030357      -9.40815095      -6.25498269       0.00629362       0.01590424      -0.03469058       0.00000000
O       -6.82612552     -14.48626443      -2.90380445       0.00629362      -0.01590424       0.03469058      -0.00000000
O       -3.48134034      -1.44334582      -7.48319802      -0.00629362       0.01590424       0.03469058       0.00000000
O       -0.04147669     -10.58198752      -5.55212390       0.00506886       0.02274070      -0.01472509      -0.00000000
O       -3.39434526      -5.34762273      -0.97273033      -0.00506886      -0.02274070      -0.01472509       0.00000000
O       -6.83016722      -2.61718240      -8.18605681      -0.00506886       0.02274070       0.01472509      -0.00000000
O       -3.47729865     -13.31242785      -3.60666324       0.00506886      -0.02274070       0.01472509       0.00000000
O       -6.83016722      -5.34762273      -3.60666324      -0.00506886      -0.02274070       0.01472509      -0.00000000
O       -3.47729865     -10.58198752      -8.18605681       0.00506886       0.02274070       0.01472509       0.00000000
O       -0.04147669     -13.31242785      -0.97273033       0.00506886      -0.02274070      -0.01472509      -0.00000000
O       -3.39434526      -2.61718240      -5.55212390      -0.00506886       0.02274070      -0.01472509      -0.00000000
O       -0.65802697     -13.72992605      -6.06323560       0.00868875       0.00554239      -0.00036195      -0.00000000
O       -2.77779498      -2.19968420      -1.48384203      -0.00868875      -0.00554239      -0.00036195      -0.00000000
O       -6.21361694      -5.76512093      -7.67494511      -0.00868875       0.00554239       0.00036195      -0.00000000
O       -4.09384893     -10.16448932      -3.09555154       0.00868875      -0.00554239       0.00036195      -0.00000000
O       -6.21361694      -2.19968420      -3.09555154      -0.00868875      -0.00554239       0.00036195      -0.00000000
O       -4.09384893     -13.72992605      -7.67494511       0.00868875       0.00554239       0.00036195      -0.00000000
O       -0.65802697     -10.16448932      -1.48384203       0.00868875      -0.00554239      -0.00036195      -0.00000000
O       -2.77779498      -5.76512093      -6.06323560      -0.00868875       0.00554239      -0.00036195      -0.00000000
O       -6.25824579     -14.09093085      -5.40009719      -0.00624696       0.00432404      -0.00261294       0.00000000
O       -4.04922007      -1.83867940      -0.82070362       0.00624696      -0.00432404      -0.00261294       0.00000000
O       -0.61339812      -6.12612572      -8.33808352       0.00624696       0.00432404       0.00261294       0.00000000
O       -2.82242384      -9.80348453      -3.75868995      -0.00624696      -0.00432404       0.00261294       0.00000000
O       -0.61339812      -1.83867940      -3.75868995       0.00624696      -0.00432404       0.00261294       0.00000000
O       -2.82242384     -14.09093085      -8.33808352      -0.00624696       0.00432404       0.00261294       0.00000000
O       -6.25824579      -9.80348453      -0.82070362      -0.00624696      -0.00432404      -0.00261294       0.00000000
O       -4.04922007      -6.12612572      -5.40009719       0.00624696       0.00432404      -0.00261294       0.00000000
O       -6.28405115     -15.51105130      -8.98381144      -0.01011311      -0.00619314      -0.03199054      -0.00000000
O       -4.02341471      -0.41855895      -4.40441787       0.01011311       0.00619314      -0.03199054      -0.00000000
O       -0.58759276      -7.54624617      -4.75436927       0.01011311      -0.00619314       0.03199054      -0.00000000
O       -2.84822920      -8.38336408      -0.17497570      -0.01011311       0.00619314       0.03199054      -0.00000000
O       -0.58759276      -0.41855895      -0.17497570       0.01011311       0.00619314       0.03199054      -0.00000000
O       -2.84822920     -15.51105130      -4.75436927      -0.01011311      -0.00619314       0.03199054      -0.00000000
O       -6.28405115      -8.38336408      -4.40441787      -0.01011311       0.00619314      -0.03199054      -0.00000000
O       -4.02341471      -7.54624617      -8.98381144       0.01011311      -0.00619314      -0.03199054      -0.00000000
96
Lattice="-6.8685476 0.0 0.0 0.0 0.0 -9.15739406 0.0 -15.92918335 0.0" Properties=species:S:1:pos:R:3:forces:R:3 e_per_atom_relaxed=-5.569216596145833 mp_id=mp-1001112 energy_per_atom=-5.5633009023958335 ef_per_atom_relaxed=-5.569216596145833 corrected_total_energy=-534.07688663 ef_per_atom=-1.2535428863541669 task_id=mp-1001112 calc_id=0 ionic_step=31 energy=-526.34888663 stress="-0.0017672379144979718 -0.0 -0.0 -0.0 -0.0009150700372022306 -0.0 -0.0 -0.0 -0.0009583038786531269" pbc="T T T"
Na      -5.13010000     -15.75337104      -6.72692809      -0.00375778      -0.00815496      -0.00402466
Na      -5.17272140      -0.17581231      -2.14823106       0.00375778       0.00815496      -0.00402466
Na      -1.73844760      -7.78877937      -7.00916300       0.00375778      -0.00815496       0.00402466
Na      -1.69582620      -8.14040398      -2.43046597      -0.00375778       0.00815496       0.00402466
Na      -1.73844760      -0.17581231      -2.43046597       0.00375778       0.00815496       0.00402466
Na      -1.69582620     -15.75337104      -7.00916300      -0.00375778      -0.00815496       0.00402466
Na      -5.13010000      -8.14040398      -2.14823106      -0.00375778       0.00815496      -0.00402466
Na      -5.17272140      -7.78877937      -6.72692809       0.00375778      -0.00815496      -0.00402466
Na      -5.20608448     -11.95104232      -9.14907118       0.00071004      -0.00156268       0.00126181
Na      -5.09673692      -3.97814103      -4.57037415      -0.00071004       0.00156268       0.00126181
Na      -1.66246312      -3.98645065      -4.58701991      -0.00071004      -0.00156268      -0.00126181
Na      -1.77181068     -11.94273270      -0.00832288       0.00071004       0.00156268      -0.00126181
Na      -1.66246312      -3.97814103      -0.00832288      -0.00071004       0.00156268      -0.00126181
Na      -1.77181068     -11.95104232      -4.58701991       0.00071004      -0.00156268      -0.00126181
Na      -5.20608448     -11.94273270      -4.57037415       0.00071004       0.00156268       0.00126181
Na      -5.09673692      -3.98645065      -9.14907118      -0.00071004      -0.00156268       0.00126181
H       -0.36198414     -12.92548558      -6.64242485       0.01073959       0.02390367      -0.01925745
H       -3.07228966      -3.00369777      -2.06372782      -0.01073959      -0.02390367      -0.01925745
H       -6.50656346      -4.96089391      -7.09366624      -0.01073959       0.02390367       0.01925745
H       -3.79625794     -10.96828944      -2.51496921       0.01073959      -0.02390367       0.01925745
H       -6.50656346      -3.00369777      -2.51496921      -0.01073959      -0.02390367       0.01925745
H       -3.79625794     -12.92548558      -7.09366624       0.01073959       0.02390367       0.01925745
H       -0.36198414     -10.96828944      -2.06372782       0.01073959      -0.02390367      -0.01925745
H       -3.07228966      -4.96089391      -6.64242485      -0.01073959       0.02390367      -0.01925745
H       -6.56292361     -14.27032489      -4.42678832      -0.01290790       0.00024989       0.02860258
H       -3.73989779      -1.65885846      -9.00548535       0.01290790      -0.00024989       0.02860258
H       -0.30562399      -6.30573321      -0.15190871       0.01290790       0.00024989      -0.02860258
H       -3.12864981      -9.62345014      -4.73060574      -0.01290790      -0.00024989      -0.02860258
H       -0.30562399      -1.65885846      -4.73060574       0.01290790      -0.00024989      -0.02860258
H       -3.12864981     -14.27032489      -0.15190871      -0.01290790       0.00024989      -0.02860258
H       -6.56292361      -9.62345014      -9.00548535      -0.01290790      -0.00024989       0.02860258
H       -3.73989779      -6.30573321      -4.42678832       0.01290790       0.00024989       0.02860258
H       -6.57481361     -14.62146589      -0.27000412       0.01845436       0.00892484      -0.00332159
H       -3.72800779      -1.30771746      -4.84870115      -0.01845436      -0.00892484      -0.00332159
H       -0.29373399      -6.65687422      -4.30869291      -0.01845436       0.00892484       0.00332159
H       -3.14053981      -9.27230913      -8.88738994       0.01845436      -0.00892484       0.00332159
H       -0.29373399      -1.30771746      -8.88738994      -0.01845436      -0.00892484       0.00332159
H       -3.14053981     -14.62146589      -4.30869291       0.01845436       0.00892484       0.00332159
H       -6.57481361      -9.27230913      -4.84870115       0.01845436      -0.00892484      -0.00332159
H       -3.72800779      -6.65687422      -0.27000412      -0.01845436       0.00892484      -0.00332159
C       -0.02801598     -10.54329198      -6.84983579       0.01108343       0.01599787      -0.02992206
C       -3.40625782      -5.38589137      -2.27113876      -0.01108343      -0.01599787      -0.02992206
C       -6.84053162      -2.57870031      -6.88625530      -0.01108343       0.01599787       0.02992206
C       -3.46228978     -13.35048304      -2.30755827       0.01108343      -0.01599787       0.02992206
C       -6.84053162      -5.38589137      -2.30755827      -0.01108343      -0.01599787       0.02992206
C       -3.46228978     -10.54329198      -6.88625530       0.01108343       0.01599787       0.02992206
C       -0.02801598     -13.35048304      -2.27113876       0.01108343      -0.01599787      -0.02992206
C       -3.40625782      -2.57870031      -6.84983579      -0.01108343       0.01599787      -0.02992206
O       -0.08609663     -11.65735804      -7.51920412      -0.01240107      -0.08135043      -0.03009576
O       -3.34817717      -4.27182531      -2.94050709       0.01240107       0.08135043      -0.03009576
O       -6.78245097      -3.69276636      -6.21688697       0.01240107      -0.08135043       0.03009576
O       -3.52037043     -12.23641699      -1.63818994      -0.01240107       0.08135043       0.03009576
O       -6.78245097      -4.27182531      -1.63818994       0.01240107       0.08135043       0.03009576
O       -3.52037043     -11.65735804      -6.21688697      -0.01240107      -0.08135043       0.03009576
O       -0.08609663     -12.23641699      -2.94050709      -0.01240107       0.08135043      -0.03009576
O       -3.34817717      -3.69276636      -7.51920412       0.01240107      -0.08135043      -0.03009576
O       -6.82339006      -9.40860337      -7.48295476       0.00610060       0.04744372       0.04119543
O       -3.47943134      -6.52057998      -2.90425773      -0.00610060      -0.04744372       0.04119543
O       -0.04515754      -1.44401169      -6.25313633      -0.00610060       0.04744372      -0.04119543
O       -3.38911626     -14.48517166      -1.67443930       0.00610060      -0.04744372      -0.04119543
O       -0.04515754      -6.52057998      -1.67443930      -0.00610060      -0.04744372      -0.04119543
O       -3.38911626      -9.40860337      -6.25313633       0.00610060       0.04744372      -0.04119543
O       -6.82339006     -14.48517166      -2.90425773       0.00610060      -0.04744372       0.04119543
O       -3.47943134      -1.44401169      -7.48295476      -0.00610060       0.04744372       0.04119543
O       -0.04200289     -10.58126684      -5.55155614       0.00582938       0.03758843       0.02452254
O       -3.39227091      -5.34791651      -0.97285911      -0.00582938      -0.03758843       0.02452254
O       -6.82654471      -2.61667516      -8.18453495      -0.00582938       0.03758843      -0.02452254
O       -3.47627669     -13.31250819      -3.60583792       0.00582938      -0.03758843      -0.02452254
O       -6.82654471      -5.34791651      -3.60583792      -0.00582938      -0.03758843      -0.02452254
O       -3.47627669     -10.58126684      -8.18453495       0.00582938       0.03758843      -0.02452254
O       -0.04200289     -13.31250819      -0.97285911       0.00582938      -0.03758843       0.02452254
O       -3.39227091      -2.61667516      -5.55155614      -0.00582938       0.03758843       0.02452254
O       -0.65678907     -13.72977936      -6.06311574      -0.04681959      -0.02102156       0.00432502
O       -2.77748473      -2.19940399      -1.48441871       0.04681959       0.02102156       0.00432502
O       -6.21175853      -5.76518768      -7.67297535       0.04681959      -0.02102156      -0.00432502
O       -4.09106287     -10.16399567      -3.09427832      -0.04681959       0.02102156      -0.00432502
O       -6.21175853      -2.19940399      -3.09427832       0.04681959       0.02102156      -0.00432502
O       -4.09106287     -13.72977936      -7.67297535      -0.04681959      -0.02102156      -0.00432502
O       -0.65678907     -10.16399567      -1.48441871      -0.04681959       0.02102156       0.00432502
O       -2.77748473      -5.76518768      -6.06311574       0.04681959      -0.02102156       0.00432502
O       -6.25613464     -14.09134506      -5.39974532       0.04657382      -0.00534623      -0.01348025
O       -4.04668676      -1.83783829      -0.82104829      -0.04657382       0.00534623      -0.01348025
O       -0.61241296      -6.12675338      -8.33634577      -0.04657382      -0.00534623       0.01348025
O       -2.82186084      -9.80242997      -3.75764874       0.04657382       0.00534623       0.01348025
O       -0.61241296      -1.83783829      -3.75764874      -0.04657382       0.00534623       0.01348025
O       -2.82186084     -14.09134506      -8.33634577       0.04657382      -0.00534623       0.01348025
O       -6.25613464      -9.80242997      -0.82104829       0.04657382       0.00534623      -0.01348025
O       -4.04668676      -6.12675338      -5.39974532      -0.04657382      -0.00534623      -0.01348025
O       -6.28194712     -15.50972399      -8.98031707      -0.02000663      -0.00741211      -0.02661636
O       -4.02087428      -0.41945936      -4.40162004       0.02000663       0.00741211      -0.02661636
O       -0.58660048      -7.54513231      -4.75577402       0.02000663      -0.00741211       0.02661636
O       -2.84767332      -8.38405104      -0.17707699      -0.02000663       0.00741211       0.02661636
O       -0.58660048      -0.41945936      -0.17707699       0.02000663       0.00741211       0.02661636
O       -2.84767332     -15.50972399      -4.75577402      -0.02000663      -0.00741211       0.02661636
O       -6.28194712      -8.38405104      -4.40162004      -0.02000663       0.00741211      -0.02661636
O       -4.02087428      -7.54513231      -8.98031707       0.02000663      -0.00741211      -0.02661636
96
Lattice="-6.86642312 0.0 0.0 0.0 0.0 -9.15737068 0.0 -15.93252391 0.0" Properties=species:S:1:pos:R:3:forces:R:3 e_per_atom_relaxed=-5.569216596145833 mp_id=mp-1001112 energy_per_atom=-5.563273564270833 ef_per_atom_relaxed=-5.569216596145833 corrected_total_energy=-534.07426217 ef_per_atom=-1.253515548229167 task_id=mp-1001112 calc_id=0 ionic_step=30 energy=-526.34626217 stress="-0.0013696546819565226 -0.0 0.0 -0.0 -0.0002858783070815859 -0.0 0.0 -0.0 -0.0002879610861938749" pbc="T T T"
Na      -5.12727453     -15.75850713      -6.72728206      -0.01140486       0.00950281      -0.00018253
Na      -5.17236015      -0.17401678      -2.14859672       0.01140486      -0.00950281      -0.00018253
Na      -1.73914859      -7.79224518      -7.00877396       0.01140486       0.00950281       0.00018253
Na      -1.69406297      -8.14027873      -2.43008862      -0.01140486      -0.00950281       0.00018253
Na      -1.73914859      -0.17401678      -2.43008862       0.01140486      -0.00950281       0.00018253
Na      -1.69406297     -15.75850713      -7.00877396      -0.01140486       0.00950281       0.00018253
Na      -5.12727453      -8.14027873      -2.14859672      -0.01140486      -0.00950281      -0.00018253
Na      -5.17236015      -7.79224518      -6.72728206       0.01140486       0.00950281      -0.00018253
Na      -5.20462019     -11.95381134      -9.14923518       0.00169688       0.00153692       0.00228690
Na      -5.09501449      -3.97871257      -4.57054984      -0.00169688      -0.00153692       0.00228690
Na      -1.66180293      -3.98754939      -4.58682084      -0.00169688       0.00153692      -0.00228690
Na      -1.77140863     -11.94497452      -0.00813550       0.00169688      -0.00153692      -0.00228690
Na      -1.66180293      -3.97871257      -0.00813550      -0.00169688      -0.00153692      -0.00228690
Na      -1.77140863     -11.95381134      -4.58682084       0.00169688       0.00153692      -0.00228690
Na      -5.20462019     -11.94497452      -4.57054984       0.00169688      -0.00153692       0.00228690
Na      -5.09501449      -3.98754939      -9.14923518      -0.00169688       0.00153692       0.00228690
H       -0.36194447     -12.92755861      -6.64155680       0.01391790       0.02016577      -0.02495432
H       -3.07126709      -3.00496530      -2.06287146      -0.01391790      -0.02016577      -0.02495432
H       -6.50447865      -4.96129665      -7.09449922      -0.01391790       0.02016577       0.02495432
H       -3.79515603     -10.97122726      -2.51581388       0.01391790      -0.02016577       0.02495432
H       -6.50447865      -3.00496530      -2.51581388      -0.01391790      -0.02016577       0.02495432
H       -3.79515603     -12.92755861      -7.09449922       0.01391790       0.02016577       0.02495432
H       -0.36194447     -10.97122726      -2.06287146       0.01391790      -0.02016577      -0.02495432
H       -3.07126709      -4.96129665      -6.64155680      -0.01391790       0.02016577      -0.02495432
H       -6.56089462     -14.27267245      -4.42676154      -0.00668625      -0.00156507       0.00519716
H       -3.73874006      -1.65985146      -9.00544688       0.00668625       0.00156507       0.00519716
H       -0.30552850      -6.30641050      -0.15192380       0.00668625      -0.00156507      -0.00519716
H       -3.12768306      -9.62611341      -4.73060914      -0.00668625       0.00156507      -0.00519716
H       -0.30552850      -1.65985146      -4.73060914       0.00668625       0.00156507      -0.00519716
H       -3.12768306     -14.27267245      -0.15192380      -0.00668625      -0.00156507      -0.00519716
H       -6.56089462      -9.62611341      -9.00544688      -0.00668625       0.00156507       0.00519716
H       -3.73874006      -6.30641050      -4.42676154       0.00668625      -0.00156507       0.00519716
H       -6.57244353     -14.62423857      -0.27052210       0.00655919       0.00700911       0.00240714
H       -3.72719115      -1.30828534      -4.84920744      -0.00655919      -0.00700911       0.00240714
H       -0.29397959      -6.65797662      -4.30816324      -0.00655919       0.00700911      -0.00240714
H       -3.13923197      -9.27454729      -8.88684858       0.00655919      -0.00700911      -0.00240714
H       -0.29397959      -1.30828534      -8.88684858      -0.00655919      -0.00700911      -0.00240714
H       -3.13923197     -14.62423857      -4.30816324       0.00655919       0.00700911      -0.00240714
H       -6.57244353      -9.27454729      -4.84920744       0.00655919      -0.00700911       0.00240714
H       -3.72719115      -6.65797662      -0.27052210      -0.00655919       0.00700911       0.00240714
C       -0.02813249     -10.54491147      -6.85003268       0.00698403      -0.03225945      -0.02927826
C       -3.40507907      -5.38761244      -2.27134734      -0.00698403       0.03225945      -0.02927826
C       -6.83829063      -2.57864952      -6.88602334      -0.00698403      -0.03225945       0.02927826
C       -3.46134405     -13.35387439      -2.30733800       0.00698403       0.03225945       0.02927826
C       -6.83829063      -5.38761244      -2.30733800      -0.00698403       0.03225945       0.02927826
C       -3.46134405     -10.54491147      -6.88602334       0.00698403      -0.03225945       0.02927826
C       -0.02813249     -13.35387439      -2.27134734       0.00698403       0.03225945      -0.02927826
C       -3.40507907      -2.57864952      -6.85003268      -0.00698403      -0.03225945      -0.02927826
O       -0.08544124     -11.66100071      -7.51874271      -0.01042694      -0.01529211      -0.00550900
O       -3.34777032      -4.27152320      -2.94005737       0.01042694       0.01529211      -0.00550900
O       -6.78098188      -3.69473875      -6.21731331       0.01042694      -0.01529211       0.00550900
O       -3.51865280     -12.23778516      -1.63862797      -0.01042694       0.01529211       0.00550900
O       -6.78098188      -4.27152320      -1.63862797       0.01042694       0.01529211       0.00550900
O       -3.51865280     -11.66100071      -6.21731331      -0.01042694      -0.01529211       0.00550900
O       -0.08544124     -12.23778516      -2.94005737      -0.01042694       0.01529211      -0.00550900
O       -3.34777032      -3.69473875      -7.51874271       0.01042694      -0.01529211      -0.00550900
O       -6.82172422      -9.41055799      -7.48342658       0.00657790       0.03410378       0.03497337
O       -3.47791046      -6.52196592      -2.90474124      -0.00657790      -0.03410378       0.03497337
O       -0.04469890      -1.44429604      -6.25262944      -0.00657790       0.03410378      -0.03497337
O       -3.38851266     -14.48822787      -1.67394410       0.00657790      -0.03410378      -0.03497337
O       -0.04469890      -6.52196592      -1.67394410      -0.00657790      -0.03410378      -0.03497337
O       -3.38851266      -9.41055799      -6.25262944       0.00657790       0.03410378      -0.03497337
O       -6.82172422     -14.48822787      -2.90474124       0.00657790      -0.03410378       0.03497337
O       -3.47791046      -1.44429604      -7.48342658      -0.00657790       0.03410378       0.03497337
O       -0.04280796     -10.58168932      -5.55137585       0.00808120       0.01718982       0.00128421
O       -3.39040360      -5.35083459      -0.97269051      -0.00808120      -0.01718982       0.00128421
O       -6.82361516      -2.61542736      -8.18468017      -0.00808120       0.01718982      -0.00128421
O       -3.47601952     -13.31709655      -3.60599483       0.00808120      -0.01718982      -0.00128421
O       -6.82361516      -5.35083459      -3.60599483      -0.00808120      -0.01718982      -0.00128421
O       -3.47601952     -10.58168932      -8.18468017       0.00808120       0.01718982      -0.00128421
O       -0.04280796     -13.31709655      -0.97269051       0.00808120      -0.01718982       0.00128421
O       -3.39040360      -2.61542736      -5.55137585      -0.00808120       0.01718982       0.00128421
O       -0.65616350     -13.73362164      -6.06442002      -0.06030024      -0.01346202       0.01090438
O       -2.77704806      -2.19890227      -1.48573468       0.06030024       0.01346202       0.01090438
O       -6.21025962      -5.76735968      -7.67163600       0.06030024      -0.01346202      -0.01090438
O       -4.08937506     -10.16516423      -3.09295066      -0.06030024       0.01346202      -0.01090438
O       -6.21025962      -2.19890227      -3.09295066       0.06030024       0.01346202      -0.01090438
O       -4.08937506     -13.73362164      -7.67163600      -0.06030024      -0.01346202      -0.01090438
O       -0.65616350     -10.16516423      -1.48573468      -0.06030024       0.01346202       0.01090438
O       -2.77704806      -5.76735968      -6.06442002       0.06030024      -0.01346202       0.01090438
O       -6.25421215     -14.09586159      -5.40093573       0.04837644       0.00025083       0.02119817
O       -4.04542253      -1.83666232      -0.82225039      -0.04837644      -0.00025083       0.02119817
O       -0.61221097      -6.12959963      -8.33512029      -0.04837644       0.00025083      -0.02119817
O       -2.82100059      -9.80292428      -3.75643495       0.04837644      -0.00025083      -0.02119817
O       -0.61221097      -1.83666232      -3.75643495      -0.04837644      -0.00025083      -0.02119817
O       -2.82100059     -14.09586159      -8.33512029       0.04837644       0.00025083      -0.02119817
O       -6.25421215      -9.80292428      -0.82225039       0.04837644      -0.00025083       0.02119817
O       -4.04542253      -6.12959963      -5.40093573      -0.04837644       0.00025083       0.02119817
O       -6.28184614     -15.51154441      -8.97720271      -0.00343381      -0.02534567      -0.03996663
O       -4.01778854      -0.42097950      -4.39851737       0.00343381       0.02534567      -0.03996663
O       -0.58457698      -7.54528245      -4.75885331       0.00343381      -0.02534567       0.03996663
O       -2.84863458      -8.38724146      -0.18016797      -0.00343381       0.02534567       0.03996663
O       -0.58457698      -0.42097950      -0.18016797       0.00343381       0.02534567       0.03996663
O       -2.84863458     -15.51154441      -4.75885331      -0.00343381      -0.02534567       0.03996663
O       -6.28184614      -8.38724146      -4.39851737      -0.00343381       0.02534567      -0.03996663
O       -4.01778854      -7.54528245      -8.97720271       0.00343381      -0.02534567      -0.03996663
96
Lattice="-6.86444379 0.0 0.0 0.0 0.0 -9.15734889 0.0 -15.93563625 0.0" Properties=species:S:1:pos:R:3:forces:R:3 e_per_atom_relaxed=-5.569216596145833 mp_id=mp-1001112 energy_per_atom=-5.563231376145833 ef_per_atom_relaxed=-5.569216596145833 corrected_total_energy=-534.0702121099999 ef_per_atom=-1.2534733601041665 task_id=mp-1001112 calc_id=0 ionic_step=28 energy=-526.34221211 stress="-0.0007837544773141155 -0.0 0.0 -0.0 0.00026680521638529207 -0.0 0.0 -0.0 0.0003954282766176287" pbc="T T T"
Na      -5.12464248     -15.76329282      -6.72761184      -0.02607371       0.03784452       0.00578650
Na      -5.17202320      -0.17234343      -2.14893739       0.02607371      -0.03784452       0.00578650
Na      -1.73980131      -7.79547470      -7.00841150       0.02607371       0.03784452      -0.00578650
Na      -1.69242059      -8.14016155      -2.42973705      -0.02607371      -0.03784452      -0.00578650
Na      -1.73980131      -0.17234343      -2.42973705       0.02607371      -0.03784452      -0.00578650
Na      -1.69242059     -15.76329282      -7.00841150      -0.02607371       0.03784452      -0.00578650
Na      -5.12464248      -8.14016155      -2.14893739      -0.02607371      -0.03784452       0.00578650
Na      -5.17202320      -7.79547470      -6.72761184       0.02607371       0.03784452       0.00578650
Na      -5.20325588     -11.95639139      -9.14938804       0.00388597       0.00605864       0.00459897
Na      -5.09340981      -3.97924486      -4.57071360      -0.00388597      -0.00605864       0.00459897
Na      -1.66118791      -3.98857326      -4.58663529      -0.00388597       0.00605864      -0.00459897
Na      -1.77103398     -11.94706299      -0.00796085       0.00388597      -0.00605864      -0.00459897
Na      -1.66118791      -3.97924486      -0.00796085      -0.00388597      -0.00605864      -0.00459897
Na      -1.77103398     -11.95639139      -4.58663529       0.00388597       0.00605864      -0.00459897
Na      -5.20325588     -11.94706299      -4.57071360       0.00388597      -0.00605864       0.00459897
Na      -5.09340981      -3.98857326      -9.14938804      -0.00388597       0.00605864       0.00459897
H       -0.36190748     -12.92948986      -6.64074806       0.01701581       0.01623493      -0.03058471
H       -3.07031441      -3.00614639      -2.06207362      -0.01701581      -0.01623493      -0.03058471
H       -6.50253631      -4.96167174      -7.09527527      -0.01701581       0.01623493       0.03058471
H       -3.79412938     -10.97396451      -2.51660083       0.01701581      -0.01623493       0.03058471
H       -6.50253631      -3.00614639      -2.51660083      -0.01701581      -0.01623493       0.03058471
H       -3.79412938     -12.92948986      -7.09527527       0.01701581       0.01623493       0.03058471
H       -0.36190748     -10.97396451      -2.06207362       0.01701581      -0.01623493      -0.03058471
H       -3.07031441      -4.96167174      -6.64074806      -0.01701581       0.01623493      -0.03058471
H       -6.55900425     -14.27485962      -4.42673654      -0.00120668      -0.00382447      -0.01628108
H       -3.73766143      -1.66077663      -9.00541098       0.00120668       0.00382447      -0.01628108
H       -0.30543954      -6.30704149      -0.15193791       0.00120668      -0.00382447       0.01628108
H       -3.12678236      -9.62859476      -4.73061235      -0.00120668       0.00382447       0.01628108
H       -0.30543954      -1.66077663      -4.73061235       0.00120668       0.00382447       0.01628108
H       -3.12678236     -14.27485962      -0.15193791      -0.00120668      -0.00382447       0.01628108
H       -6.55900425      -9.62859476      -9.00541098      -0.00120668       0.00382447      -0.01628108
H       -3.73766143      -6.30704149      -4.42673654       0.00120668      -0.00382447      -0.01628108
H       -6.57023551     -14.62682173      -0.27100478      -0.00406716       0.00509537       0.00770939
H       -3.72643017      -1.30881452      -4.84967923       0.00406716      -0.00509537       0.00770939
H       -0.29420828      -6.65900360      -4.30766966       0.00406716       0.00509537      -0.00770939
H       -3.13801362      -9.27663265      -8.88634411      -0.00406716      -0.00509537      -0.00770939
H       -0.29420828      -1.30881452      -8.88634411       0.00406716      -0.00509537      -0.00770939
H       -3.13801362     -14.62682173      -4.30766966      -0.00406716       0.00509537      -0.00770939
H       -6.57023551      -9.27663265      -4.84967923      -0.00406716      -0.00509537       0.00770939
H       -3.72643017      -6.65900360      -0.27100478       0.00406716       0.00509537       0.00770939
C       -0.02824101     -10.54642032      -6.85021610       0.00414321      -0.07245123      -0.02349687
C       -3.40398089      -5.38921593      -2.27154165      -0.00414321       0.07245123      -0.02349687
C       -6.83620278      -2.57860219      -6.88580724      -0.00414321      -0.07245123       0.02349687
C       -3.46046290     -13.35703406      -2.30713279       0.00414321       0.07245123       0.02349687
C       -6.83620278      -5.38921593      -2.30713279      -0.00414321       0.07245123       0.02349687
C       -3.46046290     -10.54642032      -6.88580724       0.00414321      -0.07245123       0.02349687
C       -0.02824101     -13.35703406      -2.27154165       0.00414321       0.07245123      -0.02349687
C       -3.40398089      -2.57860219      -6.85021610      -0.00414321      -0.07245123      -0.02349687
O       -0.08483087     -11.66439476      -7.51831274      -0.01182695       0.04731004       0.01068719
O       -3.34739103      -4.27124149      -2.93963830       0.01182695      -0.04731004       0.01068719
O       -6.77961292      -3.69657663      -6.21771059       0.01182695       0.04731004      -0.01068719
O       -3.51705276     -12.23905962      -1.63903615      -0.01182695      -0.04731004      -0.01068719
O       -6.77961292      -4.27124149      -1.63903615       0.01182695      -0.04731004      -0.01068719
O       -3.51705276     -11.66439476      -6.21771059      -0.01182695       0.04731004      -0.01068719
O       -0.08483087     -12.23905962      -2.93963830      -0.01182695      -0.04731004       0.01068719
O       -3.34739103      -3.69657663      -7.51831274       0.01182695       0.04731004       0.01068719
O       -6.82017204      -9.41237909      -7.48386618       0.00883654       0.02029971       0.03076168
O       -3.47649364      -6.52325716      -2.90519174      -0.00883654      -0.02029971       0.03076168
O       -0.04427175      -1.44456096      -6.25215715      -0.00883654       0.02029971      -0.03076168
O       -3.38795015     -14.49107529      -1.67348271       0.00883654      -0.02029971      -0.03076168
O       -0.04427175      -6.52325716      -1.67348271      -0.00883654      -0.02029971      -0.03076168
O       -3.38795015      -9.41237909      -6.25215715       0.00883654       0.02029971      -0.03076168
O       -6.82017204     -14.49107529      -2.90519174       0.00883654      -0.02029971       0.03076168
O       -3.47649364      -1.44456096      -7.48386618      -0.00883654       0.02029971       0.03076168
O       -0.04355778     -10.58208252      -5.55120788       0.01407993      -0.01414046      -0.01919415
O       -3.38866412      -5.35355373      -0.97253344      -0.01407993       0.01414046      -0.01919415
O       -6.82088601      -2.61426439      -8.18481545      -0.01407993      -0.01414046       0.01919415
O       -3.47577967     -13.32137186      -3.60614101       0.01407993       0.01414046       0.01919415
O       -6.82088601      -5.35355373      -3.60614101      -0.01407993       0.01414046       0.01919415
O       -3.47577967     -10.58208252      -8.18481545       0.01407993      -0.01414046       0.01919415
O       -0.04355778     -13.32137186      -0.97253344       0.01407993       0.01414046      -0.01919415
O       -3.38866412      -2.61426439      -5.55120788      -0.01407993      -0.01414046      -0.01919415
O       -0.65558088     -13.73720161      -6.06563514      -0.07089665      -0.00245050       0.02139353
O       -2.77664102      -2.19843464      -1.48696070       0.07089665       0.00245050       0.02139353
O       -6.20886291      -5.76938348      -7.67038819       0.07089665      -0.00245050      -0.02139353
O       -4.08780277     -10.16625277      -3.09171375      -0.07089665       0.00245050      -0.02139353
O       -6.20886291      -2.19843464      -3.09171375       0.07089665       0.00245050      -0.02139353
O       -4.08780277     -13.73720161      -7.67038819      -0.07089665      -0.00245050      -0.02139353
O       -0.65558088     -10.16625277      -1.48696070      -0.07089665       0.00245050       0.02139353
O       -2.77664102      -5.76938348      -6.06563514       0.07089665      -0.00245050       0.02139353
O       -6.25242103     -14.10007007      -5.40204474       0.04858591       0.01212775       0.05500846
O       -4.04424465      -1.83556618      -0.82337030      -0.04858591      -0.01212775       0.05500846
O       -0.61202276      -6.13225194      -8.33397859      -0.04858591       0.01212775      -0.05500846
O       -2.82019914      -9.80338431      -3.75530415       0.04858591      -0.01212775      -0.05500846
O       -0.61202276      -1.83556618      -3.75530415      -0.04858591      -0.01212775      -0.05500846
O       -2.82019914     -14.10007007      -8.33397859       0.04858591       0.01212775      -0.05500846
O       -6.25242103      -9.80338431      -0.82337030       0.04858591      -0.01212775       0.05500846
O       -4.04424465      -6.13225194      -5.40204474      -0.04858591       0.01212775       0.05500846
O       -6.28175143     -15.51324022      -8.97430118       0.01893686      -0.04536143      -0.06261916
O       -4.01491426      -0.42239603      -4.39562673      -0.01893686       0.04536143      -0.06261916
O       -0.58269236      -7.54542210      -4.76172216      -0.01893686      -0.04536143       0.06261916
O       -2.84952953      -8.39021415      -0.18304771       0.01893686       0.04536143       0.06261916
O       -0.58269236      -0.42239603      -0.18304771      -0.01893686       0.04536143       0.06261916
O       -2.84952953     -15.51324022      -4.76172216       0.01893686      -0.04536143       0.06261916
O       -6.28175143      -8.39021415      -4.39562673       0.01893686       0.04536143      -0.06261916
O       -4.01491426      -7.54542210      -8.97430118      -0.01893686      -0.04536143      -0.06261916
96
Lattice="-6.86291168 0.0 0.0 0.0 0.0 -9.15608074 0.0 -15.93947771 0.0" Properties=species:S:1:pos:R:3:forces:R:3 e_per_atom_relaxed=-5.569216596145833 mp_id=mp-1001112 energy_per_atom=-5.563189146354166 ef_per_atom_relaxed=-5.569216596145833 corrected_total_energy=-534.0661580499999 ef_per_atom=-1.2534311303124994 task_id=mp-1001112 calc_id=0 ionic_step=22 energy=-526.33815805 stress="-0.00012828958888275898 -0.0 0.0 -0.0 0.0010540326191732683 -0.0 0.0 -0.0 0.0003679585710754119" pbc="T T T"
Na      -5.12238806     -15.76875937      -6.72707891      -0.02340735       0.03292594       0.00715330
Na      -5.17197946      -0.17071834      -2.14903854       0.02340735      -0.03292594       0.00715330
Na      -1.74052362      -7.79902051      -7.00704220       0.02340735       0.03292594      -0.00715330
Na      -1.69093222      -8.14045720      -2.42900183      -0.02340735      -0.03292594      -0.00715330
Na      -1.74052362      -0.17071834      -2.42900183       0.02340735      -0.03292594      -0.00715330
Na      -1.69093222     -15.76875937      -7.00704220      -0.02340735       0.03292594      -0.00715330
Na      -5.12238806      -8.14045720      -2.14903854      -0.02340735      -0.03292594       0.00715330
Na      -5.17197946      -7.79902051      -6.72707891       0.02340735       0.03292594       0.00715330
Na      -5.20219899     -11.95949214      -9.14826767       0.00261612       0.00420321       0.00217450
Na      -5.09216853      -3.97998557      -4.57022730      -0.00261612      -0.00420321       0.00217450
Na      -1.66071269      -3.98975328      -4.58585344      -0.00261612       0.00420321      -0.00217450
Na      -1.77074315     -11.94972443      -0.00781307       0.00261612      -0.00420321      -0.00217450
Na      -1.66071269      -3.97998557      -0.00781307      -0.00261612      -0.00420321      -0.00217450
Na      -1.77074315     -11.95949214      -4.58585344       0.00261612       0.00420321      -0.00217450
Na      -5.20219899     -11.94972443      -4.57022730       0.00261612      -0.00420321       0.00217450
Na      -5.09216853      -3.98975328      -9.14826767      -0.00261612       0.00420321       0.00217450
H       -0.36138659     -12.93106850      -6.63947829      -0.00713527      -0.03893720      -0.00497494
H       -3.07006925      -3.00840921      -2.06143792       0.00713527       0.03893720      -0.00497494
H       -6.50152509      -4.96132964      -7.09464282       0.00713527      -0.03893720       0.00497494
H       -3.79284243     -10.97814807      -2.51660245      -0.00713527       0.03893720       0.00497494
H       -6.50152509      -3.00840921      -2.51660245       0.00713527       0.03893720       0.00497494
H       -3.79284243     -12.93106850      -7.09464282      -0.00713527      -0.03893720       0.00497494
H       -0.36138659     -10.97814807      -2.06143792      -0.00713527       0.03893720      -0.00497494
H       -3.07006925      -4.96132964      -6.63947829       0.00713527      -0.03893720      -0.00497494
H       -6.55758115     -14.27740477      -4.42662956       0.00071772      -0.02177447       0.00107089
H       -3.73678637      -1.66207294      -9.00466993      -0.00071772       0.02177447       0.00107089
H       -0.30533053      -6.30766592      -0.15141081      -0.00071772      -0.02177447      -0.00107089
H       -3.12612531      -9.63181179      -4.72945118       0.00071772       0.02177447      -0.00107089
H       -0.30533053      -1.66207294      -4.72945118      -0.00071772       0.02177447      -0.00107089
H       -3.12612531     -14.27740477      -0.15141081       0.00071772      -0.02177447      -0.00107089
H       -6.55758115      -9.63181179      -9.00466993       0.00071772       0.02177447       0.00107089
H       -3.73678637      -6.30766592      -4.42662956      -0.00071772      -0.02177447       0.00107089
H       -6.56836924     -14.62971696      -0.27153685      -0.01081327      -0.01624532       0.01622948
H       -3.72599828      -1.30976075      -4.84957722       0.01081327       0.01624532       0.01622948
H       -0.29454244      -6.65997810      -4.30650352       0.01081327      -0.01624532      -0.01622948
H       -3.13691340      -9.27949961      -8.88454389      -0.01081327       0.01624532      -0.01622948
H       -0.29454244      -1.30976075      -8.88454389       0.01081327       0.01624532      -0.01622948
H       -3.13691340     -14.62971696      -4.30650352      -0.01081327      -0.01624532      -0.01622948
H       -6.56836924      -9.27949961      -4.84957722      -0.01081327       0.01624532       0.01622948
H       -3.72599828      -6.65997810      -0.27153685       0.01081327      -0.01624532       0.01622948
C       -0.02829771     -10.55038780      -6.85037250       0.00285712       0.07507885       0.03258414
C       -3.40315813      -5.38908991      -2.27233213      -0.00285712      -0.07507885       0.03258414
C       -6.83461397      -2.58064894      -6.88374861      -0.00285712       0.07507885      -0.03258414
C       -3.45975355     -13.35882877      -2.30570824       0.00285712      -0.07507885      -0.03258414
C       -6.83461397      -5.38908991      -2.30570824      -0.00285712      -0.07507885      -0.03258414
C       -3.45975355     -10.55038780      -6.88374861       0.00285712       0.07507885      -0.03258414
C       -0.02829771     -13.35882877      -2.27233213       0.00285712      -0.07507885       0.03258414
C       -3.40315813      -2.58064894      -6.85037250      -0.00285712       0.07507885       0.03258414
O       -0.08420230     -11.66756060      -7.51622338      -0.01221174       0.00398986      -0.02286313
O       -3.34725354      -4.27191711      -2.93818301       0.01221174      -0.00398986      -0.02286313
O       -6.77870938      -3.69782175      -6.21789773       0.01221174       0.00398986       0.02286313
O       -3.51565814     -12.24165596      -1.63985736      -0.01221174      -0.00398986       0.02286313
O       -6.77870938      -4.27191711      -1.63985736       0.01221174      -0.00398986       0.02286313
O       -3.51565814     -11.66756060      -6.21789773      -0.01221174       0.00398986       0.02286313
O       -0.08420230     -12.24165596      -2.93818301      -0.01221174      -0.00398986      -0.02286313
O       -3.34725354      -3.69782175      -7.51622338       0.01221174       0.00398986      -0.02286313
O       -6.81906557      -9.41395723      -7.48260418       0.00641737      -0.04593392       0.01216089
O       -3.47530195      -6.52552048      -2.90456381      -0.00641737       0.04593392       0.01216089
O       -0.04384611      -1.44421837      -6.25151693      -0.00641737      -0.04593392      -0.01216089
O       -3.38760973     -14.49525934      -1.67347656       0.00641737       0.04593392      -0.01216089
O       -0.04384611      -6.52552048      -1.67347656      -0.00641737       0.04593392      -0.01216089
O       -3.38760973      -9.41395723      -6.25151693       0.00641737      -0.04593392      -0.01216089
O       -6.81906557     -14.49525934      -2.90456381       0.00641737       0.04593392       0.01216089
O       -3.47530195      -1.44421837      -7.48260418      -0.00641737      -0.04593392       0.01216089
O       -0.04438389     -10.58225129      -5.55080171       0.01619517      -0.05508701      -0.01733969
O       -3.38707195      -5.35722642      -0.97276134      -0.01619517       0.05508701      -0.01733969
O       -6.81852779      -2.61251244      -8.18331940      -0.01619517      -0.05508701       0.01733969
O       -3.47583973     -13.32696527      -3.60527903       0.01619517       0.05508701       0.01733969
O       -6.81852779      -5.35722642      -3.60527903      -0.01619517       0.05508701       0.01733969
O       -3.47583973     -10.58225129      -8.18331940       0.01619517      -0.05508701       0.01733969
O       -0.04438389     -13.32696527      -0.97276134       0.01619517       0.05508701      -0.01733969
O       -3.38707195      -2.61251244      -5.55080171      -0.01619517      -0.05508701      -0.01733969
O       -0.65707658     -13.74211694      -6.06618641       0.01765944       0.03799083       0.02134780
O       -2.77437926      -2.19736077      -1.48814604      -0.01765944      -0.03799083       0.02134780
O       -6.20583510      -5.77237809      -7.66793470      -0.01765944       0.03799083      -0.02134780
O       -4.08853242     -10.16709962      -3.08989433       0.01765944      -0.03799083      -0.02134780
O       -6.20583510      -2.19736077      -3.08989433      -0.01765944      -0.03799083      -0.02134780
O       -4.08853242     -13.74211694      -7.66793470       0.01765944       0.03799083      -0.02134780
O       -0.65707658     -10.16709962      -1.48814604       0.01765944      -0.03799083       0.02134780
O       -2.77437926      -5.77237809      -6.06618641      -0.01765944       0.03799083       0.02134780
O       -6.24946208     -14.10554500      -5.40140963      -0.01746641       0.03948809       0.01152809
O       -4.04490544      -1.83393271      -0.82336926       0.01746641      -0.03948809       0.01152809
O       -0.61344960      -6.13580615      -8.33271148       0.01746641       0.03948809      -0.01152809
O       -2.81800624      -9.80367156      -3.75467111      -0.01746641      -0.03948809      -0.01152809
O       -0.61344960      -1.83393271      -3.75467111       0.01746641      -0.03948809      -0.01152809
O       -2.81800624     -14.10554500      -8.33271148      -0.01746641       0.03948809      -0.01152809
O       -6.24946208      -9.80367156      -0.82336926      -0.01746641      -0.03948809       0.01152809
O       -4.04490544      -6.13580615      -5.40140963       0.01746641       0.03948809       0.01152809
O       -6.28264714     -15.51619197      -8.97020717       0.04670563      -0.01831859      -0.05734019
O       -4.01172038      -0.42328574      -4.39216680      -0.04670563       0.01831859      -0.05734019
O       -0.58026454      -7.54645311      -4.76391394      -0.04670563      -0.01831859       0.05734019
O       -2.85119130      -8.39302460      -0.18587357       0.04670563       0.01831859       0.05734019
O       -0.58026454      -0.42328574      -0.18587357      -0.04670563       0.01831859       0.05734019
O       -2.85119130     -15.51619197      -4.76391394       0.04670563      -0.01831859       0.05734019
O       -6.28264714      -8.39302460      -4.39216680       0.04670563       0.01831859      -0.05734019
O       -4.01172038      -7.54645311      -8.97020717      -0.04670563      -0.01831859      -0.05734019
96
Lattice="-6.86531605 0.0 0.0 0.0 0.0 -9.15284347 0.0 -15.9386512 0.0" Properties=species:S:1:pos:R:3:forces:R:3 e_per_atom_relaxed=-5.569216596145833 mp_id=mp-1001112 energy_per_atom=-5.563137648333333 ef_per_atom_relaxed=-5.569216596145833 corrected_total_energy=-534.0612142399999 ef_per_atom=-1.2533796322916662 task_id=mp-1001112 calc_id=0 ionic_step=17 energy=-526.33321424 stress="0.0040655117578407745 -0.0 -0.0 -0.0 0.0019133328437094122 -0.0 -0.0 -0.0 0.0003533944027452382" pbc="T T T"
Na      -5.12381508     -15.76852905      -6.72481541      -0.02713907       0.04675301       0.01327766
Na      -5.17415899      -0.17012215      -2.14839368       0.02713907      -0.04675301       0.01327766
Na      -1.74150097      -7.79920345      -7.00444979       0.02713907       0.04675301      -0.01327766
Na      -1.69115706      -8.13944775      -2.42802806      -0.02713907      -0.04675301      -0.01327766
Na      -1.74150097      -0.17012215      -2.42802806       0.02713907      -0.04675301      -0.01327766
Na      -1.69115706     -15.76852905      -7.00444979      -0.02713907       0.04675301      -0.01327766
Na      -5.12381508      -8.13944775      -2.14839368      -0.02713907      -0.04675301       0.01327766
Na      -5.17415899      -7.79920345      -6.72481541       0.02713907       0.04675301       0.01327766
Na      -5.20405442     -11.95895680      -9.14509724       0.00201449       0.00642672       0.00633492
Na      -5.09391965      -3.97969440      -4.56867550      -0.00201449      -0.00642672       0.00633492
Na      -1.66126163      -3.98963120      -4.58416797      -0.00201449       0.00642672      -0.00633492
Na      -1.77139640     -11.94902000      -0.00774623       0.00201449      -0.00642672      -0.00633492
Na      -1.66126163      -3.97969440      -0.00774623      -0.00201449      -0.00642672      -0.00633492
Na      -1.77139640     -11.95895680      -4.58416797       0.00201449       0.00642672      -0.00633492
Na      -5.20405442     -11.94902000      -4.56867550       0.00201449      -0.00642672       0.00633492
Na      -5.09391965      -3.98963120      -9.14509724      -0.00201449       0.00642672       0.00633492
H       -0.36140877     -12.92979455      -6.63675829      -0.00683659      -0.02465655      -0.01825907
H       -3.07124925      -3.00885665      -2.06033655       0.00683659       0.02465655      -0.01825907
H       -6.50390728      -4.96046895      -7.09250692       0.00683659      -0.02465655       0.01825907
H       -3.79406680     -10.97818225      -2.51608518      -0.00683659       0.02465655       0.01825907
H       -6.50390728      -3.00885665      -2.51608518       0.00683659       0.02465655       0.01825907
H       -3.79406680     -12.92979455      -7.09250692      -0.00683659      -0.02465655       0.01825907
H       -0.36140877     -10.97818225      -2.06033655      -0.00683659       0.02465655      -0.01825907
H       -3.07124925      -4.96046895      -6.63675829       0.00683659      -0.02465655      -0.01825907
H       -6.55982775     -14.27593541      -4.42516862      -0.00437891      -0.02840510       0.02369565
H       -3.73814633      -1.66271579      -9.00159035       0.00437891       0.02840510       0.02369565
H       -0.30548830      -6.30660981      -0.15125312       0.00437891      -0.02840510      -0.02369565
H       -3.12716972      -9.63204139      -4.72767485      -0.00437891       0.02840510      -0.02369565
H       -0.30548830      -1.66271579      -4.72767485       0.00437891       0.02840510      -0.02369565
H       -3.12716972     -14.27593541      -0.15125312      -0.00437891      -0.02840510      -0.02369565
H       -6.55982775      -9.63204139      -9.00159035      -0.00437891       0.02840510       0.02369565
H       -3.73814633      -6.30660981      -4.42516862       0.00437891      -0.02840510       0.02369565
H       -6.57020117     -14.62870988      -0.27199468      -0.02034254      -0.01220503       0.01411060
H       -3.72777290      -1.30994132      -4.84841642       0.02034254       0.01220503       0.01411060
H       -0.29511488      -6.65938428      -4.30442705       0.02034254      -0.01220503      -0.01411060
H       -3.13754315      -9.27926692      -8.88084879      -0.02034254       0.01220503      -0.01411060
H       -0.29511488      -1.30994132      -8.88084879       0.02034254       0.01220503      -0.01411060
H       -3.13754315     -14.62870988      -4.30442705      -0.02034254      -0.01220503      -0.01411060
H       -6.57020117      -9.27926692      -4.84841642      -0.02034254       0.01220503       0.01411060
H       -3.72777290      -6.65938428      -0.27199468       0.02034254      -0.01220503       0.01411060
C       -0.02818068     -10.54815537      -6.84809872      -0.00676746      -0.09064262       0.01378899
C       -3.40447734      -5.39049583      -2.27167699       0.00676746       0.09064262       0.01378899
C       -6.83713537      -2.57882977      -6.88116648       0.00676746      -0.09064262      -0.01378899
C       -3.46083871     -13.35982143      -2.30474475      -0.00676746       0.09064262      -0.01378899
C       -6.83713537      -5.39049583      -2.30474475       0.00676746       0.09064262      -0.01378899
C       -3.46083871     -10.54815537      -6.88116648      -0.00676746      -0.09064262      -0.01378899
C       -0.02818068     -13.35982143      -2.27167699      -0.00676746       0.09064262       0.01378899
C       -3.40447734      -2.57882977      -6.84809872       0.00676746      -0.09064262       0.01378899
O       -0.08412690     -11.66725334      -7.51306662      -0.01171119       0.00231235      -0.03892774
O       -3.34853113      -4.27139786      -2.93664489       0.01171119      -0.00231235      -0.03892774
O       -6.78118915      -3.69792774      -6.21619858       0.01171119       0.00231235       0.03892774
O       -3.51678492     -12.24072346      -1.63977685      -0.01171119      -0.00231235       0.03892774
O       -6.78118915      -4.27139786      -1.63977685       0.01171119      -0.00231235       0.03892774
O       -3.51678492     -11.66725334      -6.21619858      -0.01171119       0.00231235       0.03892774
O       -0.08412690     -12.24072346      -2.93664489      -0.01171119      -0.00231235      -0.03892774
O       -3.34853113      -3.69792774      -7.51306662       0.01171119       0.00231235      -0.03892774
O       -6.82165841      -9.41524051      -7.47867875       0.01571149       0.10258963      -0.07943395
O       -3.47631567      -6.52341069      -2.90225701      -0.01571149      -0.10258963      -0.07943395
O       -0.04365764      -1.44591491      -6.25058646      -0.01571149       0.10258963       0.07943395
O       -3.38900038     -14.49273629      -1.67416472       0.01571149      -0.10258963       0.07943395
O       -0.04365764      -6.52341069      -1.67416472      -0.01571149      -0.10258963       0.07943395
O       -3.38900038      -9.41524051      -6.25058646       0.01571149       0.10258963       0.07943395
O       -6.82165841     -14.49273629      -2.90225701       0.01571149      -0.10258963      -0.07943395
O       -3.47631567      -1.44591491      -7.47867875      -0.01571149       0.10258963      -0.07943395
O       -0.04460478     -10.58076458      -5.55069259       0.01738773      -0.05606895       0.11270664
O       -3.38805324      -5.35788662      -0.97427085      -0.01738773       0.05606895       0.11270664
O       -6.82071127      -2.61143898      -8.17857262      -0.01738773      -0.05606895      -0.11270664
O       -3.47726281     -13.32721222      -3.60215088       0.01738773       0.05606895      -0.11270664
O       -6.82071127      -5.35788662      -3.60215088      -0.01738773       0.05606895      -0.11270664
O       -3.47726281     -10.58076458      -8.17857262       0.01738773      -0.05606895      -0.11270664
O       -0.04460478     -13.32721222      -0.97427085       0.01738773       0.05606895       0.11270664
O       -3.38805324      -2.61143898      -5.55069259      -0.01738773      -0.05606895       0.11270664
O       -0.65870511     -13.74163277      -6.06505264       0.08623073       0.01862302       0.05844222
O       -2.77395292      -2.19701843      -1.48863091      -0.08623073      -0.01862302       0.05844222
O       -6.20661094      -5.77230717      -7.66421256      -0.08623073       0.01862302      -0.05844222
O       -4.09136313     -10.16634403      -3.08779083       0.08623073      -0.01862302      -0.05844222
O       -6.20661094      -2.19701843      -3.08779083      -0.08623073      -0.01862302      -0.05844222
O       -4.09136313     -13.74163277      -7.66421256       0.08623073       0.01862302      -0.05844222
O       -0.65870511     -10.16634403      -1.48863091       0.08623073      -0.01862302       0.05844222
O       -2.77395292      -5.77230717      -6.06505264      -0.08623073       0.01862302       0.05844222
O       -6.25037019     -14.10580306      -5.39865892      -0.08061633       0.06092492      -0.03697313
O       -4.04760388      -1.83284814      -0.82223718       0.08061633      -0.06092492      -0.03697313
O       -0.61494586      -6.13647746      -8.33060629       0.08061633       0.06092492       0.03697313
O       -2.81771217      -9.80217374      -3.75418455      -0.08061633      -0.06092492       0.03697313
O       -0.61494586      -1.83284814      -3.75418455       0.08061633      -0.06092492       0.03697313
O       -2.81771217     -14.10580306      -8.33060629      -0.08061633       0.06092492       0.03697313
O       -6.25037019      -9.80217374      -0.82223718      -0.08061633      -0.06092492      -0.03697313
O       -4.04760388      -6.13647746      -5.39865892       0.08061633       0.06092492      -0.03697313
O       -6.28608576     -15.51527711      -8.96638705       0.07524537      -0.00548042      -0.05300403
O       -4.01188831      -0.42337409      -4.38996532      -0.07524537       0.00548042      -0.05300403
O       -0.57923029      -7.54595151      -4.76287815      -0.07524537      -0.00548042       0.05300403
O       -2.85342774      -8.39269969      -0.18645642       0.07524537       0.00548042       0.05300403
O       -0.57923029      -0.42337409      -0.18645642      -0.07524537       0.00548042       0.05300403
O       -2.85342774     -15.51527711      -4.76287815       0.07524537      -0.00548042       0.05300403
O       -6.28608576      -8.39269969      -4.38996532       0.07524537       0.00548042      -0.05300403
O       -4.01188831      -7.54595151      -8.96638705      -0.07524537      -0.00548042      -0.05300403
96
Lattice="-6.88195144 0.0 0.0 0.0 0.0 -9.15593344 0.0 -15.9495731 0.0" Properties=species:S:1:pos:R:3:forces:R:3 e_per_atom_relaxed=-5.569216596145833 mp_id=mp-1001112 energy_per_atom=-5.563096219375 ef_per_atom_relaxed=-5.569216596145833 corrected_total_energy=-534.0572370599999 ef_per_atom=-1.253338203333333 task_id=mp-1001112 calc_id=0 ionic_step=14 energy=-526.32923706 stress="0.0025129916750311876 -0.0 -0.0 -0.0 0.00181152094739142 -0.0 -0.0 -0.0 0.00025943913711114365" pbc="T T T"
Na      -5.13664575     -15.77837325      -6.72660207      -0.01573166       0.01325869      -0.00425856
Na      -5.18628141      -0.17119985      -2.14863535       0.01573166      -0.01325869      -0.00425856
Na      -1.74530569      -7.80358670      -7.00729809       0.01573166       0.01325869       0.00425856
Na      -1.69567003      -8.14598640      -2.42933137      -0.01573166      -0.01325869       0.00425856
Na      -1.74530569      -0.17119985      -2.42933137       0.01573166      -0.01325869       0.00425856
Na      -1.69567003     -15.77837325      -7.00729809      -0.01573166       0.01325869       0.00425856
Na      -5.13664575      -8.14598640      -2.14863535      -0.01573166      -0.01325869      -0.00425856
Na      -5.18628141      -7.80358670      -6.72660207       0.01573166       0.01325869      -0.00425856
Na      -5.21670879     -11.96703169      -9.14799103       0.00284731       0.00337635      -0.00114867
Na      -5.10621837      -3.98254141      -4.57002431      -0.00284731      -0.00337635      -0.00114867
Na      -1.66524265      -3.99224514      -4.58590913      -0.00284731       0.00337635       0.00114867
Na      -1.77573307     -11.95732796      -0.00794241       0.00284731      -0.00337635       0.00114867
Na      -1.66524265      -3.98254141      -0.00794241      -0.00284731      -0.00337635       0.00114867
Na      -1.77573307     -11.96703169      -4.58590913       0.00284731       0.00337635       0.00114867
Na      -5.21670879     -11.95732796      -4.57002431       0.00284731      -0.00337635      -0.00114867
Na      -5.10621837      -3.99224514      -9.14799103      -0.00284731       0.00337635      -0.00114867
H       -0.36306726     -12.93746512      -6.63867123       0.00353690      -0.04160567      -0.00414634
H       -3.07790846      -3.01210798      -2.06070451      -0.00353690       0.04160567      -0.00414634
H       -6.51888418      -4.96267857      -7.09522893      -0.00353690      -0.04160567       0.00414634
H       -3.80404298     -10.98689453      -2.51726221       0.00353690       0.04160567       0.00414634
H       -6.51888418      -3.01210798      -2.51726221      -0.00353690       0.04160567       0.00414634
H       -3.80404298     -12.93746512      -7.09522893       0.00353690      -0.04160567       0.00414634
H       -0.36306726     -10.98689453      -2.06070451       0.00353690       0.04160567      -0.00414634
H       -3.07790846      -4.96267857      -6.63867123      -0.00353690      -0.04160567      -0.00414634
H       -6.57543242     -14.28378485      -4.42416352      -0.01075121      -0.02950315       0.00064025
H       -3.74749474      -1.66578825      -9.00213024       0.01075121       0.02950315       0.00064025
H       -0.30651902      -6.30899830      -0.15380320       0.01075121      -0.02950315      -0.00064025
H       -3.13445670      -9.64057480      -4.73176992      -0.01075121       0.02950315      -0.00064025
H       -0.30651902      -1.66578825      -4.73176992       0.01075121       0.02950315      -0.00064025
H       -3.13445670     -14.28378485      -0.15380320      -0.01075121      -0.02950315      -0.00064025
H       -6.57543242      -9.64057480      -9.00213024      -0.01075121       0.02950315       0.00064025
H       -3.74749474      -6.30899830      -4.42416352       0.01075121      -0.02950315       0.00064025
H       -6.58447661     -14.63818197      -0.27417470      -0.03540033      -0.04043712       0.01548013
H       -3.73845055      -1.31139113      -4.85214142       0.03540033       0.04043712       0.01548013
H       -0.29747483      -6.66339542      -4.30379202       0.03540033      -0.04043712      -0.01548013
H       -3.14350089      -9.28617768      -8.88175874      -0.03540033       0.04043712      -0.01548013
H       -0.29747483      -1.31139113      -8.88175874       0.03540033       0.04043712      -0.01548013
H       -3.14350089     -14.63818197      -4.30379202      -0.03540033      -0.04043712      -0.01548013
H       -6.58447661      -9.28617768      -4.85214142      -0.03540033       0.04043712       0.01548013
H       -3.73845055      -6.66339542      -0.27417470       0.03540033      -0.04043712       0.01548013
C       -0.02799289     -10.55635782      -6.85117486      -0.00735121      -0.04664002       0.05562555
C       -3.41298283      -5.39321528      -2.27320814       0.00735121       0.04664002       0.05562555
C       -6.85395855      -2.58157127      -6.88272530       0.00735121      -0.04664002      -0.05562555
C       -3.46896861     -13.36800183      -2.30475858      -0.00735121       0.04664002      -0.05562555
C       -6.85395855      -5.39321528      -2.30475858       0.00735121       0.04664002      -0.05562555
C       -3.46896861     -10.55635782      -6.88272530      -0.00735121      -0.04664002      -0.05562555
C       -0.02799289     -13.36800183      -2.27320814      -0.00735121       0.04664002       0.05562555
C       -3.41298283      -2.58157127      -6.85117486       0.00735121      -0.04664002       0.05562555
O       -0.08506395     -11.67505449      -7.51524858      -0.01141924      -0.00552591      -0.04986521
O       -3.35591177      -4.27451861      -2.93728186       0.01141924       0.00552591      -0.04986521
O       -6.79688749      -3.70026794      -6.21865158       0.01141924      -0.00552591       0.04986521
O       -3.52603967     -12.24930516      -1.64068486      -0.01141924       0.00552591       0.04986521
O       -6.79688749      -4.27451861      -1.64068486       0.01141924       0.00552591       0.04986521
O       -3.52603967     -11.67505449      -6.21865158      -0.01141924      -0.00552591       0.04986521
O       -0.08506395     -12.24930516      -2.93728186      -0.01141924       0.00552591      -0.04986521
O       -3.35591177      -3.70026794      -7.51524858       0.01141924      -0.00552591      -0.04986521
O       -6.83777867      -9.42279486      -7.48034983       0.01922212       0.09871995      -0.10857783
O       -3.48514849      -6.52677824      -2.90238311      -0.01922212      -0.09871995      -0.10857783
O       -0.04417277      -1.44800831      -6.25355033      -0.01922212       0.09871995       0.10857783
O       -3.39680295     -14.50156479      -1.67558361       0.01922212      -0.09871995       0.10857783
O       -0.04417277      -6.52677824      -1.67558361      -0.01922212      -0.09871995       0.10857783
O       -3.39680295      -9.42279486      -6.25355033       0.01922212       0.09871995       0.10857783
O       -6.83777867     -14.50156479      -2.90238311       0.01922212      -0.09871995      -0.10857783
O       -3.48514849      -1.44800831      -7.48034983      -0.01922212       0.09871995      -0.10857783
O       -0.04382344     -10.58728420      -5.55363956       0.01775637      -0.07737134       0.11963704
O       -3.39715228      -5.36228890      -0.97567284      -0.01775637       0.07737134       0.11963704
O       -6.83812800      -2.61249765      -8.18026060      -0.01775637      -0.07737134      -0.11963704
O       -3.48479916     -13.33707545      -3.60229388       0.01775637       0.07737134      -0.11963704
O       -6.83812800      -5.36228890      -3.60229388      -0.01775637       0.07737134      -0.11963704
O       -3.48479916     -10.58728420      -8.18026060       0.01775637      -0.07737134      -0.11963704
O       -0.04382344     -13.33707545      -0.97567284       0.01775637       0.07737134       0.11963704
O       -3.39715228      -2.61249765      -5.55363956      -0.01775637      -0.07737134       0.11963704
O       -0.65928352     -13.75020273      -6.06695561       0.11267889       0.01066989       0.07651152
O       -2.78169220      -2.19937037      -1.48898889      -0.11267889      -0.01066989       0.07651152
O       -6.22266792      -5.77541618      -7.66694455      -0.11267889       0.01066989      -0.07651152
O       -4.10025924     -10.17415692      -3.08897783       0.11267889      -0.01066989      -0.07651152
O       -6.22266792      -2.19937037      -3.08897783      -0.11267889      -0.01066989      -0.07651152
O       -4.10025924     -13.75020273      -7.66694455       0.11267889       0.01066989      -0.07651152
O       -0.65928352     -10.17415692      -1.48898889       0.11267889      -0.01066989       0.07651152
O       -2.78169220      -5.77541618      -6.06695561      -0.11267889       0.01066989       0.07651152
O       -6.26653417     -14.11492481      -5.39906992      -0.10935606       0.07264036      -0.05392003
O       -4.05639299      -1.83464829      -0.82110320       0.10935606      -0.07264036      -0.05392003
O       -0.61541727      -6.14013826      -8.33483024       0.10935606       0.07264036       0.05392003
O       -2.82555845      -9.80943484      -3.75686352      -0.10935606      -0.07264036       0.05392003
O       -0.61541727      -1.83464829      -3.75686352       0.10935606      -0.07264036       0.05392003
O       -2.82555845     -14.11492481      -8.33483024      -0.10935606       0.07264036       0.05392003
O       -6.26653417      -9.80943484      -0.82110320      -0.10935606      -0.07264036      -0.05392003
O       -4.05639299      -6.14013826      -5.39906992       0.10935606       0.07264036      -0.05392003
O       -6.30189942     -15.52640748      -8.97219656       0.08822701       0.00114851      -0.03670086
O       -4.02102774      -0.42316562      -4.39422984      -0.08822701      -0.00114851      -0.03670086
O       -0.58005202      -7.55162093      -4.76170360      -0.08822701       0.00114851       0.03670086
O       -2.86092370      -8.39795217      -0.18373688       0.08822701      -0.00114851       0.03670086
O       -0.58005202      -0.42316562      -0.18373688      -0.08822701      -0.00114851       0.03670086
O       -2.86092370     -15.52640748      -4.76170360       0.08822701       0.00114851       0.03670086
O       -6.30189942      -8.39795217      -4.39422984       0.08822701      -0.00114851      -0.03670086
O       -4.02102774      -7.55162093      -8.97219656      -0.08822701       0.00114851      -0.03670086
96
Lattice="-6.84101027 0.0 0.0 0.0 0.0 -9.14832874 0.0 -15.92269335 0.0" Properties=species:S:1:pos:R:3:forces:R:3 e_per_atom_relaxed=-5.569216596145833 mp_id=mp-1001112 energy_per_atom=-5.563083251041666 ef_per_atom_relaxed=-5.569216596145833 corrected_total_energy=-534.0559920999999 ef_per_atom=-1.2533252349999995 task_id=mp-1001112 calc_id=0 ionic_step=12 energy=-526.3279921 stress="-0.001123610197920072 -0.0 0.0 -0.0 -0.000703832520934511 -0.0 0.0 -0.0 -0.001706702678406728" pbc="T T T"
Na      -5.10506567     -15.75414734      -6.72220541      -0.01293452       0.02290309       0.00195796
Na      -5.15644973      -0.16854601      -2.14804104       0.01293452      -0.02290309       0.00195796
Na      -1.73594460      -7.79280067      -7.00028770       0.01293452       0.02290309      -0.00195796
Na      -1.68456054      -8.12989268      -2.42612333      -0.01293452      -0.02290309      -0.00195796
Na      -1.73594460      -0.16854601      -2.42612333       0.01293452      -0.02290309      -0.00195796
Na      -1.68456054     -15.75414734      -7.00028770      -0.01293452       0.02290309      -0.00195796
Na      -5.10506567      -8.12989268      -2.14804104      -0.01293452      -0.02290309       0.00195796
Na      -5.15644973      -7.79280067      -6.72220541       0.01293452       0.02290309       0.00195796
Na      -5.18556507     -11.94715922      -9.14086919       0.00011930       0.00242645      -0.00010449
Na      -5.07595033      -3.97553413      -4.56670482      -0.00011930      -0.00242645      -0.00010449
Na      -1.65544520      -3.98581255      -4.58162392      -0.00011930       0.00242645       0.00010449
Na      -1.76505994     -11.93688080      -0.00745955       0.00011930      -0.00242645       0.00010449
Na      -1.65544520      -3.97553413      -0.00745955      -0.00011930      -0.00242645       0.00010449
Na      -1.76505994     -11.94715922      -4.58162392       0.00011930       0.00242645       0.00010449
Na      -5.18556507     -11.93688080      -4.56670482       0.00011930      -0.00242645      -0.00010449
Na      -5.07595033      -3.98581255      -9.14086919      -0.00011930       0.00242645      -0.00010449
H       -0.35898071     -12.91858937      -6.63396355      -0.02546304      -0.01287868      -0.03119914
H       -3.06152442      -3.00410398      -2.05979918       0.02546304       0.01287868      -0.03119914
H       -6.48202956      -4.95724269      -7.08852956       0.02546304      -0.01287868       0.03119914
H       -3.77948585     -10.96545066      -2.51436519      -0.02546304       0.01287868       0.03119914
H       -6.48202956      -3.00410398      -2.51436519       0.02546304       0.01287868       0.03119914
H       -3.77948585     -12.91858937      -7.08852956      -0.02546304      -0.01287868       0.03119914
H       -0.35898071     -10.96545066      -2.05979918      -0.02546304       0.01287868      -0.03119914
H       -3.06152442      -4.95724269      -6.63396355       0.02546304      -0.01287868      -0.03119914
H       -6.53702964     -14.26447031      -4.42663934       0.00872318      -0.02677548       0.04144050
H       -3.72448577      -1.65822304      -9.00080371      -0.00872318       0.02677548       0.04144050
H       -0.30398063      -6.30312363      -0.14752503      -0.00872318      -0.02677548      -0.04144050
H       -3.11652450      -9.61956972      -4.72168940       0.00872318       0.02677548      -0.04144050
H       -0.30398063      -1.65822304      -4.72168940      -0.00872318       0.02677548      -0.04144050
H       -3.11652450     -14.26447031      -0.14752503       0.00872318      -0.02677548      -0.04144050
H       -6.53702964      -9.61956972      -9.00080371       0.00872318       0.02677548       0.04144050
H       -3.72448577      -6.30312363      -4.42663934      -0.00872318      -0.02677548       0.04144050
H       -6.54935365     -14.61487131      -0.26880754       0.00351960       0.01797182       0.01966137
H       -3.71216176      -1.30782204      -4.84297191      -0.00351960      -0.01797182       0.01966137
H       -0.29165662      -6.65352463      -4.30535683      -0.00351960       0.01797182      -0.01966137
H       -3.12884851      -9.26916872      -8.87952120       0.00351960      -0.01797182      -0.01966137
H       -0.29165662      -1.30782204      -8.87952120      -0.00351960      -0.01797182      -0.01966137
H       -3.12884851     -14.61487131      -4.30535683       0.00351960       0.01797182      -0.01966137
H       -6.54935365      -9.26916872      -4.84297191       0.00351960      -0.01797182       0.01966137
H       -3.71216176      -6.65352463      -0.26880754      -0.00351960       0.01797182       0.01966137
C       -0.02845662     -10.53616911      -6.84360355      -0.00610716      -0.14641021      -0.03750976
C       -3.39204852      -5.38652424      -2.26943918       0.00610716       0.14641021      -0.03750976
C       -6.81255365      -2.57482244      -6.87888956       0.00610716      -0.14641021       0.03750976
C       -3.44896175     -13.34787091      -2.30472519      -0.00610716       0.14641021       0.03750976
C       -6.81255365      -5.38652424      -2.30472519       0.00610716       0.14641021       0.03750976
C       -3.44896175     -10.53616911      -6.87888956      -0.00610716      -0.14641021       0.03750976
C       -0.02845662     -13.34787091      -2.26943918      -0.00610716       0.14641021      -0.03750976
C       -3.39204852      -2.57482244      -6.84360355       0.00610716      -0.14641021      -0.03750976
O       -0.08275324     -11.65585546      -7.50987889      -0.00569984       0.04800333       0.00324856
O       -3.33775190      -4.26683789      -2.93571452       0.00569984      -0.04800333       0.00324856
O       -6.75825703      -3.69450878      -6.21261422       0.00569984       0.04800333      -0.00324856
O       -3.50325837     -12.22818457      -1.63844985      -0.00569984      -0.04800333      -0.00324856
O       -6.75825703      -4.26683789      -1.63844985       0.00569984      -0.04800333      -0.00324856
O       -3.50325837     -11.65585546      -6.21261422      -0.00569984       0.04800333      -0.00324856
O       -0.08275324     -12.22818457      -2.93571452      -0.00569984      -0.04800333       0.00324856
O       -3.33775190      -3.69450878      -7.50987889       0.00569984       0.04800333       0.00324856
O       -6.79810776      -9.40420128      -7.47623783       0.00729853       0.08763416      -0.02867409
O       -3.46340764      -6.51849207      -2.90207346      -0.00729853      -0.08763416      -0.02867409
O       -0.04290251      -1.44285460      -6.24625528      -0.00729853       0.08763416       0.02867409
O       -3.37760263     -14.47983875      -1.67209091       0.00729853      -0.08763416       0.02867409
O       -0.04290251      -6.51849207      -1.67209091      -0.00729853      -0.08763416       0.02867409
O       -3.37760263      -9.40420128      -6.24625528       0.00729853       0.08763416       0.02867409
O       -6.79810776     -14.47983875      -2.90207346       0.00729853      -0.08763416      -0.02867409
O       -3.46340764      -1.44285460      -7.47623783      -0.00729853       0.08763416      -0.02867409
O       -0.04575192     -10.57124028      -5.54638581       0.01431922      -0.01730578       0.07336117
O       -3.37475321      -5.35145307      -0.97222144      -0.01431922       0.01730578       0.07336117
O       -6.79525835      -2.60989360      -8.17610730      -0.01431922      -0.01730578      -0.07336117
O       -3.46625706     -13.31279975      -3.60194293       0.01431922       0.01730578      -0.07336117
O       -6.79525835      -5.35145307      -3.60194293      -0.01431922       0.01730578      -0.07336117
O       -3.46625706     -10.57124028      -8.17610730       0.01431922      -0.01730578      -0.07336117
O       -0.04575192     -13.31279975      -0.97222144       0.01431922       0.01730578       0.07336117
O       -3.37475321      -2.60989360      -5.54638581      -0.01431922      -0.01730578       0.07336117
O       -0.65786630     -13.72911258      -6.06227223       0.05293408       0.02054947       0.03611804
O       -2.76263884      -2.19358077      -1.48810786      -0.05293408      -0.02054947       0.03611804
O       -6.18314397      -5.76776590      -7.66022088      -0.05293408       0.02054947      -0.03611804
O       -4.07837143     -10.15492745      -3.08605651       0.05293408      -0.02054947      -0.03611804
O       -6.18314397      -2.19358077      -3.08605651      -0.05293408      -0.02054947      -0.03611804
O       -4.07837143     -13.72911258      -7.66022088       0.05293408       0.02054947      -0.03611804
O       -0.65786630     -10.15492745      -1.48810786       0.05293408      -0.02054947       0.03611804
O       -2.76263884      -5.76776590      -6.06227223      -0.05293408       0.02054947       0.03611804
O       -6.22674672     -14.09247624      -5.39805965      -0.04099275       0.03900974      -0.02958000
O       -4.03476868      -1.83021711      -0.82389528       0.04099275      -0.03900974      -0.02958000
O       -0.61426355      -6.13112957      -8.32443346       0.04099275       0.03900974       0.02958000
O       -2.80624159      -9.79156378      -3.75026909      -0.04099275      -0.03900974       0.02958000
O       -0.61426355      -1.83021711      -3.75026909       0.04099275      -0.03900974       0.02958000
O       -2.80624159     -14.09247624      -8.32443346      -0.04099275       0.03900974       0.02958000
O       -6.22674672      -9.79156378      -0.82389528      -0.04099275      -0.03900974      -0.02958000
O       -4.03476868      -6.13112957      -5.39805965       0.04099275       0.03900974      -0.02958000
O       -6.26297699     -15.49901373      -8.95789649       0.04489618      -0.01403266      -0.05178195
O       -3.99853842      -0.42367962      -4.38373212      -0.04489618       0.01403266      -0.05178195
O       -0.57803328      -7.53766705      -4.76459662      -0.04489618      -0.01403266       0.05178195
O       -2.84247185      -8.38502630      -0.19043225       0.04489618       0.01403266       0.05178195
O       -0.57803328      -0.42367962      -0.19043225      -0.04489618       0.01403266       0.05178195
O       -2.84247185     -15.49901373      -4.76459662       0.04489618      -0.01403266       0.05178195
O       -6.26297699      -8.38502630      -4.38373212       0.04489618       0.01403266      -0.05178195
O       -3.99853842      -7.53766705      -8.95789649      -0.04489618      -0.01403266      -0.05178195
96
Lattice="-6.82455544 0.0 0.0 0.0 0.0 -9.1452723 0.0 -15.91189 0.0" Properties=species:S:1:pos:R:3:forces:R:3 e_per_atom_relaxed=-5.569216596145833 mp_id=mp-1001112 energy_per_atom=-5.562985363229166 ef_per_atom_relaxed=-5.569216596145833 corrected_total_energy=-534.0465948699999 ef_per_atom=-1.2532273471874995 task_id=mp-1001112 calc_id=0 ionic_step=10 energy=-526.31859487 stress="-0.005102065686065464 -0.0 -0.0 -0.0 -0.00328495451230092 -0.0 -0.0 -0.0 -0.0036746170575503137" pbc="T T T"
Na      -5.09237537     -15.74440924      -6.72043801      -0.01172237       0.02880888       0.00108006
Na      -5.14445779      -0.16748076      -2.14780186       0.01172237      -0.02880888       0.00108006
Na      -1.73218007      -7.78846424      -6.99747044       0.01172237       0.02880888      -0.00108006
Na      -1.68009765      -8.12342576      -2.42483429      -0.01172237      -0.02880888      -0.00108006
Na      -1.73218007      -0.16748076      -2.42483429       0.01172237      -0.02880888      -0.00108006
Na      -1.68009765     -15.74440924      -6.99747044      -0.01172237       0.02880888      -0.00108006
Na      -5.09237537      -8.12342576      -2.14780186      -0.01172237      -0.02880888       0.00108006
Na      -5.14445779      -7.78846424      -6.72043801       0.01172237       0.02880888       0.00108006
Na      -5.17304817     -11.93917208      -9.13800666       0.00174259      -0.00019059      -0.00223757
Na      -5.06378499      -3.97271792      -4.56537051      -0.00174259       0.00019059      -0.00223757
Na      -1.65150727      -3.98322708      -4.57990179      -0.00174259      -0.00019059       0.00223757
Na      -1.76077045     -11.92866292      -0.00726564       0.00174259       0.00019059       0.00223757
Na      -1.65150727      -3.97271792      -0.00726564      -0.00174259       0.00019059       0.00223757
Na      -1.76077045     -11.93917208      -4.57990179       0.00174259      -0.00019059       0.00223757
Na      -5.17304817     -11.92866292      -4.56537051       0.00174259       0.00019059      -0.00223757
Na      -5.06378499      -3.98322708      -9.13800666      -0.00174259      -0.00019059      -0.00223757
H       -0.35734225     -12.91100111      -6.63207118      -0.03820439      -0.00368496      -0.04114485
H       -3.05493547      -3.00088889      -2.05943503       0.03820439       0.00368496      -0.04114485
H       -6.46721319      -4.95505611      -7.08583727       0.03820439      -0.00368496       0.04114485
H       -3.76961997     -10.95683389      -2.51320112      -0.03820439       0.00368496       0.04114485
H       -6.46721319      -3.00088889      -2.51320112       0.03820439       0.00368496       0.04114485
H       -3.76961997     -12.91100111      -7.08583727      -0.03820439      -0.00368496       0.04114485
H       -0.35734225     -10.95683389      -2.05943503      -0.03820439       0.00368496      -0.04114485
H       -3.05493547      -4.95505611      -6.63207118       0.03820439      -0.00368496      -0.04114485
H       -6.52159356     -14.25670465      -4.42763255       0.01674015      -0.02713589       0.05945288
H       -3.71523960      -1.65518535      -9.00026870      -0.01674015       0.02713589       0.05945288
H       -0.30296188      -6.30075965      -0.14500360      -0.01674015      -0.02713589      -0.05945288
H       -3.10931584      -9.61113035      -4.71763975       0.01674015       0.02713589      -0.05945288
H       -0.30296188      -1.65518535      -4.71763975      -0.01674015       0.02713589      -0.05945288
H       -3.10931584     -14.25670465      -0.14500360       0.01674015      -0.02713589      -0.05945288
H       -6.52159356      -9.61113035      -9.00026870       0.01674015       0.02713589       0.05945288
H       -3.71523960      -6.30075965      -4.42763255      -0.01674015      -0.02713589       0.05945288
H       -6.53522875     -14.60550155      -0.26665181       0.01953571       0.03953625       0.02256217
H       -3.70160441      -1.30638845      -4.83928796      -0.01953571      -0.03953625       0.02256217
H       -0.28932669      -6.64955655      -4.30598434      -0.01953571       0.03953625      -0.02256217
H       -3.12295103      -9.26233345      -8.87862049       0.01953571      -0.03953625      -0.02256217
H       -0.28932669      -1.30638845      -8.87862049      -0.01953571      -0.03953625      -0.02256217
H       -3.12295103     -14.60550155      -4.30598434       0.01953571       0.03953625      -0.02256217
H       -6.53522875      -9.26233345      -4.83928796       0.01953571      -0.03953625       0.02256217
H       -3.70160441      -6.64955655      -0.26665181      -0.01953571       0.03953625       0.02256217
C       -0.02864170     -10.52805651      -6.84056107      -0.00606687      -0.18547715      -0.07407916
C       -3.38363602      -5.38383349      -2.26792492       0.00606687       0.18547715      -0.07407916
C       -6.79591374      -2.57211151      -6.87734738       0.00606687      -0.18547715       0.07407916
C       -3.44091942     -13.33977849      -2.30471123      -0.00606687       0.18547715       0.07407916
C       -6.79591374      -5.38383349      -2.30471123       0.00606687       0.18547715       0.07407916
C       -3.44091942     -10.52805651      -6.87734738      -0.00606687      -0.18547715       0.07407916
C       -0.02864170     -13.33977849      -2.26792492      -0.00606687       0.18547715      -0.07407916
C       -3.38363602      -2.57211151      -6.84056107       0.00606687      -0.18547715      -0.07407916
O       -0.08182840     -11.64813868      -7.50772048      -0.00013189       0.07785732       0.02724795
O       -3.33044932      -4.26375132      -2.93508433       0.00013189      -0.07785732       0.02724795
O       -6.74272704      -3.69219368      -6.21018797       0.00013189       0.07785732      -0.02724795
O       -3.49410612     -12.21969632      -1.63755182      -0.00013189      -0.07785732      -0.02724795
O       -6.74272704      -4.26375132      -1.63755182       0.00013189      -0.07785732      -0.02724795
O       -3.49410612     -11.64813868      -6.21018797      -0.00013189       0.07785732      -0.02724795
O       -0.08182840     -12.21969632      -2.93508433      -0.00013189      -0.07785732       0.02724795
O       -3.33044932      -3.69219368      -7.50772048       0.00013189       0.07785732       0.02724795
O       -6.78216130      -9.39672988      -7.47458460       0.00128844       0.07855255       0.00143160
O       -3.45467186      -6.51516012      -2.90194845      -0.00128844      -0.07855255       0.00143160
O       -0.04239414      -1.44078488      -6.24332385      -0.00128844       0.07855255      -0.00143160
O       -3.36988358     -14.47110512      -1.67068770       0.00128844      -0.07855255      -0.00143160
O       -0.04239414      -6.51516012      -1.67068770      -0.00128844      -0.07855255      -0.00143160
O       -3.36988358      -9.39672988      -6.24332385       0.00128844       0.07855255      -0.00143160
O       -6.78216130     -14.47110512      -2.90194845       0.00128844      -0.07855255       0.00143160
O       -3.45467186      -1.44078488      -7.47458460      -0.00128844       0.07855255       0.00143160
O       -0.04652238     -10.56479086      -5.54347128       0.01072233       0.00160337       0.05507029
O       -3.36575534      -5.34709914      -0.97083513      -0.01072233      -0.00160337       0.05507029
O       -6.77803306      -2.60884586      -8.17443717      -0.01072233       0.00160337      -0.05507029
O       -3.45880010     -13.30304414      -3.60180102       0.01072233      -0.00160337      -0.05507029
O       -6.77803306      -5.34709914      -3.60180102      -0.01072233      -0.00160337      -0.05507029
O       -3.45880010     -10.56479086      -8.17443717       0.01072233       0.00160337      -0.05507029
O       -0.04652238     -13.30304414      -0.97083513       0.01072233      -0.00160337       0.05507029
O       -3.36575534      -2.60884586      -5.54347128      -0.01072233       0.00160337       0.05507029
O       -0.65729143     -13.72063499      -6.06038987       0.03185666       0.03331510       0.01541992
O       -2.75498629      -2.19125501      -1.48775372      -0.03185666      -0.03331510       0.01541992
O       -6.16726401      -5.76468999      -7.65751858      -0.03185666       0.03331510      -0.01541992
O       -4.06956915     -10.14720001      -3.08488243       0.03185666      -0.03331510      -0.01541992
O       -6.16726401      -2.19125501      -3.08488243      -0.03185666      -0.03331510      -0.01541992
O       -4.06956915     -13.72063499      -7.65751858       0.03185666       0.03331510      -0.01541992
O       -0.65729143     -10.14720001      -1.48775372       0.03185666      -0.03331510       0.01541992
O       -2.75498629      -5.76468999      -6.06038987      -0.03185666       0.03331510       0.01541992
O       -6.21076093     -14.08345313      -5.39765256      -0.01214386       0.02747725      -0.02694763
O       -4.02607223      -1.82843687      -0.82501641       0.01214386      -0.02747725      -0.02694763
O       -0.61379451      -6.12750813      -8.32025589       0.01214386       0.02747725       0.02694763
O       -2.79848321      -9.78438187      -3.74761974      -0.01214386      -0.02747725       0.02694763
O       -0.61379451      -1.82843687      -3.74761974       0.01214386      -0.02747725       0.02694763
O       -2.79848321     -14.08345313      -8.32025589      -0.01214386       0.02747725       0.02694763
O       -6.21076093      -9.78438187      -0.82501641      -0.01214386      -0.02747725      -0.02694763
O       -4.02607223      -6.12750813      -5.39765256       0.01214386       0.02747725      -0.02694763
O       -6.24733652     -15.48800457      -8.95215104       0.02363018      -0.01565585      -0.05561969
O       -3.98949664      -0.42388543      -4.37951489      -0.02363018       0.01565585      -0.05561969
O       -0.57721892      -7.53205957      -4.76575741      -0.02363018      -0.01565585       0.05561969
O       -2.83505880      -8.37983043      -0.19312126       0.02363018       0.01565585       0.05561969
O       -0.57721892      -0.42388543      -0.19312126      -0.02363018       0.01565585       0.05561969
O       -2.83505880     -15.48800457      -4.76575741       0.02363018      -0.01565585       0.05561969
O       -6.24733652      -8.37983043      -4.37951489       0.02363018       0.01565585      -0.05561969
O       -3.98949664      -7.53205957      -8.95215104      -0.02363018      -0.01565585      -0.05561969
96
Lattice="-6.80966495 0.0 0.0 0.0 0.0 -9.14852444 0.0 -15.90862005 0.0" Properties=species:S:1:pos:R:3:forces:R:3 e_per_atom_relaxed=-5.569216596145833 mp_id=mp-1001112 energy_per_atom=-5.5628820046875 ef_per_atom_relaxed=-5.569216596145833 corrected_total_energy=-534.03667245 ef_per_atom=-1.2531239886458334 task_id=mp-1001112 calc_id=0 ionic_step=8 energy=-526.30867245 stress="-0.004189389660828086 -0.0 -0.0 -0.0 -0.0015353482182081284 -0.0 -0.0 -0.0 -0.0005466205964001045" pbc="T T T"
Na      -5.08094985     -15.74186462      -6.72346341      -0.01346082       0.03209446       0.00369536
Na      -5.13354757      -0.16675543      -2.14920119       0.01346082      -0.03209446       0.00369536
Na      -1.72871510      -7.78755460      -6.99932325       0.01346082       0.03209446      -0.00369536
Na      -1.67611738      -8.12106545      -2.42506103      -0.01346082      -0.03209446      -0.00369536
Na      -1.72871510      -0.16675543      -2.42506103       0.01346082      -0.03209446      -0.00369536
Na      -1.67611738     -15.74186462      -6.99932325      -0.01346082       0.03209446      -0.00369536
Na      -5.08094985      -8.12106545      -2.14920119      -0.01346082      -0.03209446       0.00369536
Na      -5.13354757      -7.78755460      -6.72346341       0.01346082       0.03209446       0.00369536
Na      -5.16166325     -11.93688606      -9.14156772       0.00290674      -0.00044383      -0.00493338
Na      -5.05283418      -3.97173399      -4.56730550      -0.00290674       0.00044383      -0.00493338
Na      -1.64800170      -3.98257603      -4.58121894      -0.00290674      -0.00044383       0.00493338
Na      -1.75683077     -11.92604402      -0.00695672       0.00290674       0.00044383       0.00493338
Na      -1.64800170      -3.97173399      -0.00695672      -0.00290674       0.00044383       0.00493338
Na      -1.75683077     -11.93688606      -4.58121894       0.00290674      -0.00044383       0.00493338
Na      -5.16166325     -11.92604402      -4.56730550       0.00290674       0.00044383      -0.00493338
Na      -5.05283418      -3.98257603      -9.14156772      -0.00290674      -0.00044383      -0.00493338
H       -0.35631497     -12.91004721      -6.63575851      -0.05194827      -0.01865025      -0.02696975
H       -3.04851751      -2.99857284      -2.06149629       0.05194827       0.01865025      -0.02696975
H       -6.45334998      -4.95573719      -7.08702815       0.05194827      -0.01865025       0.02696975
H       -3.76114744     -10.95288286      -2.51276593      -0.05194827       0.01865025       0.02696975
H       -6.45334998      -2.99857284      -2.51276593       0.05194827       0.01865025       0.02696975
H       -3.76114744     -12.91004721      -7.08702815      -0.05194827      -0.01865025       0.02696975
H       -0.35631497     -10.95288286      -2.06149629      -0.05194827       0.01865025      -0.02696975
H       -3.04851751      -4.95573719      -6.63575851       0.05194827      -0.01865025      -0.02696975
H       -6.50740095     -14.25699014      -4.43133510       0.03587524      -0.01884135       0.04456199
H       -3.70709648      -1.65162991      -9.00559732      -0.03587524       0.01884135       0.04456199
H       -0.30226400      -6.30268011      -0.14292712      -0.03587524      -0.01884135      -0.04456199
H       -3.10256847      -9.60593994      -4.71718934       0.03587524       0.01884135      -0.04456199
H       -0.30226400      -1.65162991      -4.71718934      -0.03587524       0.01884135      -0.04456199
H       -3.10256847     -14.25699014      -0.14292712       0.03587524      -0.01884135      -0.04456199
H       -6.50740095      -9.60593994      -9.00559732       0.03587524       0.01884135       0.04456199
H       -3.70709648      -6.30268011      -4.43133510      -0.03587524      -0.01884135       0.04456199
H       -6.52279236     -14.60240398      -0.26341840       0.03982780       0.04619593       0.01893630
H       -3.69170507      -1.30621607      -4.83768062      -0.03982780      -0.04619593       0.01893630
H       -0.28687259      -6.64809396      -4.31084382      -0.03982780       0.04619593      -0.01893630
H       -3.11795988      -9.26052609      -8.88510604       0.03982780      -0.04619593      -0.01893630
H       -0.28687259      -1.30621607      -8.88510604      -0.03982780      -0.04619593      -0.01893630
H       -3.11795988     -14.60240398      -4.31084382       0.03982780       0.04619593      -0.01893630
H       -6.52279236      -9.26052609      -4.83768062       0.03982780      -0.04619593       0.01893630
H       -3.69170507      -6.64809396      -0.26341840      -0.03982780       0.04619593       0.01893630
C       -0.02905827     -10.52854477      -6.84354218       0.01226281       0.12344057       0.02276439
C       -3.37577420      -5.38007528      -2.26927996      -0.01226281      -0.12344057       0.02276439
C       -6.78060668      -2.57423474      -6.87924448      -0.01226281       0.12344057      -0.02276439
C       -3.43389075     -13.33438531      -2.30498226       0.01226281      -0.12344057      -0.02276439
C       -6.78060668      -5.38007528      -2.30498226      -0.01226281      -0.12344057      -0.02276439
C       -3.43389075     -10.52854477      -6.87924448       0.01226281       0.12344057      -0.02276439
C       -0.02905827     -13.33438531      -2.26927996       0.01226281      -0.12344057       0.02276439
C       -3.37577420      -2.57423474      -6.84354218      -0.01226281       0.12344057       0.02276439
O       -0.08065340     -11.64433863      -7.51028847      -0.00488086      -0.01587326      -0.01545132
O       -3.32417908      -4.26428142      -2.93602625       0.00488086       0.01587326      -0.01545132
O       -6.72901155      -3.69002860      -6.21249819       0.00488086      -0.01587326       0.01545132
O       -3.48548587     -12.21859145      -1.63823597      -0.00488086       0.01587326       0.01545132
O       -6.72901155      -4.26428142      -1.63823597       0.00488086       0.01587326       0.01545132
O       -3.48548587     -11.64433863      -6.21249819      -0.00488086      -0.01587326       0.01545132
O       -0.08065340     -12.21859145      -2.93602625      -0.00488086       0.01587326      -0.01545132
O       -3.32417908      -3.69002860      -7.51028847       0.00488086      -0.01587326      -0.01545132
O       -6.76789351      -9.39161201      -7.47837458      -0.01415702      -0.12634144       0.11635760
O       -3.44660391      -6.51700804      -2.90411236       0.01415702       0.12634144       0.11635760
O       -0.04177144      -1.43730198      -6.24441208       0.01415702      -0.12634144      -0.11635760
O       -3.36306104     -14.47131807      -1.67014986      -0.01415702       0.12634144      -0.11635760
O       -0.04177144      -6.51700804      -1.67014986       0.01415702       0.12634144      -0.11635760
O       -3.36306104      -9.39161201      -6.24441208      -0.01415702      -0.12634144      -0.11635760
O       -6.76789351     -14.47131807      -2.90411236      -0.01415702       0.12634144       0.11635760
O       -3.44660391      -1.43730198      -7.47837458       0.01415702      -0.12634144       0.11635760
O       -0.04740317     -10.56358096      -5.54279949       0.01004154       0.00526806      -0.13155039
O       -3.35742931      -5.34503909      -0.96853727      -0.01004154      -0.00526806      -0.13155039
O       -6.76226178      -2.60927093      -8.17998717      -0.01004154       0.00526806       0.13155039
O       -3.45223564     -13.29934912      -3.60572495       0.01004154      -0.00526806       0.13155039
O       -6.76226178      -5.34503909      -3.60572495      -0.01004154      -0.00526806       0.13155039
O       -3.45223564     -10.56358096      -8.17998717       0.01004154       0.00526806       0.13155039
O       -0.04740317     -13.29934912      -0.96853727       0.01004154      -0.00526806      -0.13155039
O       -3.35742931      -2.60927093      -5.54279949      -0.01004154       0.00526806      -0.13155039
O       -0.65656120     -13.71825347      -6.06241097       0.00031457       0.06866938      -0.03094687
O       -2.74827127      -2.19036658      -1.48814875      -0.00031457      -0.06866938      -0.03094687
O       -6.15310375      -5.76394345      -7.66037569      -0.00031457       0.06866938       0.03094687
O       -4.06139368     -10.14467660      -3.08611347       0.00031457      -0.06866938       0.03094687
O       -6.15310375      -2.19036658      -3.08611347      -0.00031457      -0.06866938       0.03094687
O       -4.06139368     -13.71825347      -7.66037569       0.00031457       0.06866938       0.03094687
O       -0.65656120     -10.14467660      -1.48814875       0.00031457      -0.06866938      -0.03094687
O       -2.74827127      -5.76394345      -6.06241097      -0.00031457       0.06866938      -0.03094687
O       -6.19608166     -14.08071070      -5.40207267       0.01010089       0.00503154       0.04772696
O       -4.01841577      -1.82790935      -0.82781045      -0.01010089      -0.00503154       0.04772696
O       -0.61358329      -6.12640067      -8.32071399      -0.01010089       0.00503154      -0.04772696
O       -2.79124918      -9.78221938      -3.74645177       0.01010089      -0.00503154      -0.04772696
O       -0.61358329      -1.82790935      -3.74645177      -0.01010089      -0.00503154      -0.04772696
O       -2.79124918     -14.08071070      -8.32071399       0.01010089       0.00503154      -0.04772696
O       -6.19608166      -9.78221938      -0.82781045       0.01010089      -0.00503154       0.04772696
O       -4.01841577      -6.12640067      -5.40207267      -0.01010089       0.00503154       0.04772696
O       -6.23240577     -15.48447842      -8.95273824      -0.02424724      -0.01548242      -0.08472864
O       -3.98209165      -0.42414163      -4.37847602       0.02424724       0.01548242      -0.08472864
O       -0.57725918      -7.53016840      -4.77004842       0.02424724      -0.01548242       0.08472864
O       -2.82757330      -8.37845165      -0.19578620      -0.02424724       0.01548242       0.08472864
O       -0.57725918      -0.42414163      -0.19578620       0.02424724       0.01548242       0.08472864
O       -2.82757330     -15.48447842      -4.77004842      -0.02424724      -0.01548242       0.08472864
O       -6.23240577      -8.37845165      -4.37847602      -0.02424724       0.01548242      -0.08472864
O       -3.98209165      -7.53016840      -8.95273824       0.02424724      -0.01548242      -0.08472864
96
Lattice="-6.77995472 0.0 0.0 -0.0 0.0 -9.16545862 0.0 -15.91882994 0.0" Properties=species:S:1:pos:R:3:forces:R:3 e_per_atom_relaxed=-5.569216596145833 mp_id=mp-1001112 energy_per_atom=-5.562618982708333 ef_per_atom_relaxed=-5.569216596145833 corrected_total_energy=-534.01142234 ef_per_atom=-1.2528609666666668 task_id=mp-1001112 calc_id=0 ionic_step=6 energy=-526.28342234 stress="-0.007179460385744757 -0.0 -0.0 -0.0 -0.003352966995185354 -0.0 -0.0 -0.0 0.0018305272164910122" pbc="T T T"
Na      -5.05879786     -15.75170674      -6.73797765      -0.00413391       0.01785895      -0.00469610
Na      -5.11113422      -0.16712320      -2.15524834       0.00413391      -0.01785895      -0.00469610
Na      -1.72115686      -7.79229177      -7.01021028       0.00413391       0.01785895       0.00469610
Na      -1.66882050      -8.12653817      -2.42748097      -0.00413391      -0.01785895       0.00469610
Na      -1.72115686      -0.16712320      -2.42748097       0.00413391      -0.01785895       0.00469610
Na      -1.66882050     -15.75170674      -7.01021028      -0.00413391       0.01785895       0.00469610
Na      -5.05879786      -8.12653817      -2.15524834      -0.00413391      -0.01785895      -0.00469610
Na      -5.11113422      -7.79229177      -6.73797765       0.00413391       0.01785895      -0.00469610
Na      -5.13851399     -11.94521969      -9.16010636       0.00288838      -0.00051795      -0.00608454
Na      -5.03141809      -3.97361025      -4.57737705      -0.00288838       0.00051795      -0.00608454
Na      -1.64144073      -3.98580472      -4.58808157      -0.00288838      -0.00051795       0.00608454
Na      -1.74853663     -11.93302522      -0.00535226       0.00288838       0.00051795       0.00608454
Na      -1.64144073      -3.97361025      -0.00535226      -0.00288838       0.00051795       0.00608454
Na      -1.74853663     -11.94521969      -4.58808157       0.00288838      -0.00051795       0.00608454
Na      -5.13851399     -11.93302522      -4.57737705       0.00288838       0.00051795      -0.00608454
Na      -5.03141809      -3.98580472      -9.16010636      -0.00288838      -0.00051795      -0.00608454
H       -0.35846875     -12.92641625      -6.65547046       0.03154290       0.12662466      -0.06803626
H       -3.03150861      -2.99241369      -2.07274115      -0.03154290      -0.12662466      -0.06803626
H       -6.42148597      -4.96700128      -7.09271747      -0.03154290       0.12662466       0.06803626
H       -3.74844611     -10.95182866      -2.50998816       0.03154290      -0.12662466       0.06803626
H       -6.42148597      -2.99241369      -2.50998816      -0.03154290      -0.12662466       0.06803626
H       -3.74844611     -12.92641625      -7.09271747       0.03154290       0.12662466       0.06803626
H       -0.35846875     -10.95182866      -2.07274115       0.03154290      -0.12662466      -0.06803626
H       -3.03150861      -4.96700128      -6.65547046      -0.03154290       0.12662466      -0.06803626
H       -6.47594209     -14.27996395      -4.44358674       0.06418814       0.07012419      -0.09409153
H       -3.69398999      -1.63886599      -9.02631605      -0.06418814      -0.07012419      -0.09409153
H       -0.30401263      -6.32054898      -0.13914257      -0.06418814       0.07012419       0.09409153
H       -3.08596473      -9.59828096      -4.72187188       0.06418814      -0.07012419       0.09409153
H       -0.30401263      -1.63886599      -4.72187188      -0.06418814      -0.07012419       0.09409153
H       -3.08596473     -14.27996395      -0.13914257       0.06418814       0.07012419       0.09409153
H       -6.47594209      -9.59828096      -9.02631605       0.06418814      -0.07012419      -0.09409153
H       -3.69398999      -6.32054898      -4.44358674      -0.06418814       0.07012419      -0.09409153
H       -6.49765646     -14.60728216      -0.24964711       0.05754442       0.00037442      -0.02514505
H       -3.67227562      -1.31154778      -4.83237642      -0.05754442      -0.00037442      -0.02514505
H       -0.28229826      -6.64786719      -4.33308220      -0.05754442       0.00037442       0.02514505
H       -3.10767910      -9.27096275      -8.91581151       0.05754442      -0.00037442       0.02514505
H       -0.28229826      -1.31154778      -8.91581151      -0.05754442      -0.00037442       0.02514505
H       -3.10767910     -14.60728216      -4.33308220       0.05754442       0.00037442       0.02514505
H       -6.49765646      -9.27096275      -4.83237642       0.05754442      -0.00037442      -0.02514505
H       -3.67227562      -6.64786719      -0.24964711      -0.05754442       0.00037442      -0.02514505
C       -0.02964434     -10.53427648      -6.85624497       0.00608138       0.04532864       0.09650299
C       -3.36033302      -5.38455346      -2.27351566      -0.00608138      -0.04532864       0.09650299
C       -6.75031038      -2.57486151      -6.89194296      -0.00608138       0.04532864      -0.09650299
C       -3.41962170     -13.34396843      -2.30921365       0.00608138      -0.04532864      -0.09650299
C       -6.75031038      -5.38455346      -2.30921365      -0.00608138      -0.04532864      -0.09650299
C       -3.41962170     -10.53427648      -6.89194296       0.00608138       0.04532864      -0.09650299
C       -0.02964434     -13.34396843      -2.27351566       0.00608138      -0.04532864       0.09650299
C       -3.36033302      -2.57486151      -6.85624497      -0.00608138       0.04532864       0.09650299
O       -0.07697554     -11.64792121      -7.52518725      -0.00621689      -0.03033951      -0.04448483
O       -3.31300182      -4.27090873      -2.94245794       0.00621689       0.03033951      -0.04448483
O       -6.70297918      -3.68850624      -6.22300068       0.00621689      -0.03033951       0.04448483
O       -3.46695290     -12.23032370      -1.64027137      -0.00621689       0.03033951       0.04448483
O       -6.70297918      -4.27090873      -1.64027137       0.00621689       0.03033951       0.04448483
O       -3.46695290     -11.64792121      -6.22300068      -0.00621689      -0.03033951       0.04448483
O       -0.07697554     -12.23032370      -2.94245794      -0.00621689       0.03033951      -0.04448483
O       -3.31300182      -3.68850624      -7.52518725       0.00621689      -0.03033951      -0.04448483
O       -6.74163292      -9.39690410      -7.48608594       0.00532951      -0.02022530       0.01382973
O       -3.42829916      -6.52192584      -2.90335663      -0.00532951       0.02022530       0.01382973
O       -0.03832180      -1.43748913      -6.26210199      -0.00532951      -0.02022530      -0.01382973
O       -3.35165556     -14.48134081      -1.67937268       0.00532951       0.02022530      -0.01382973
O       -0.03832180      -6.52192584      -1.67937268      -0.00532951       0.02022530      -0.01382973
O       -3.35165556      -9.39690410      -6.26210199       0.00532951      -0.02022530      -0.01382973
O       -6.74163292     -14.48134081      -2.90335663       0.00532951       0.02022530       0.01382973
O       -3.42829916      -1.43748913      -7.48608594      -0.00532951      -0.02022530       0.01382973
O       -0.05000759     -10.57351799      -5.55484425       0.01315503       0.02907651      -0.12199633
O       -3.33996977      -5.34531195      -0.97211494      -0.01315503      -0.02907651      -0.12199633
O       -6.72994713      -2.61410302      -8.19334368      -0.01315503       0.02907651       0.12199633
O       -3.43998495     -13.30472692      -3.61061437       0.01315503      -0.02907651       0.12199633
O       -6.72994713      -5.34531195      -3.61061437      -0.01315503      -0.02907651       0.12199633
O       -3.43998495     -10.57351799      -8.19334368       0.01315503       0.02907651       0.12199633
O       -0.05000759     -13.30472692      -0.97211494       0.01315503      -0.02907651      -0.12199633
O       -3.33996977      -2.61410302      -5.55484425      -0.01315503       0.02907651      -0.12199633
O       -0.65632633     -13.72257169      -6.07589415      -0.02237923      -0.11000399       0.08527359
O       -2.73365103      -2.19625825      -1.49316484       0.02237923       0.11000399       0.08527359
O       -6.12362839      -5.76315672      -7.67229378       0.02237923      -0.11000399      -0.08527359
O       -4.04630369     -10.15567322      -3.08956447      -0.02237923       0.11000399      -0.08527359
O       -6.12362839      -2.19625825      -3.08956447       0.02237923       0.11000399      -0.08527359
O       -4.04630369     -13.72257169      -7.67229378      -0.02237923      -0.11000399      -0.08527359
O       -0.65632633     -10.15567322      -1.49316484      -0.02237923       0.11000399       0.08527359
O       -2.73365103      -5.76315672      -6.07589415       0.02237923      -0.11000399       0.08527359
O       -6.16388654     -14.08987052      -5.41724514      -0.08395996      -0.02533764       0.19671404
O       -4.00604554      -1.82895942      -0.83451583       0.08395996       0.02533764       0.19671404
O       -0.61606818      -6.13045555      -8.33094279       0.08395996      -0.02533764      -0.19671404
O       -2.77390918      -9.78837439      -3.74821348      -0.08395996       0.02533764      -0.19671404
O       -0.61606818      -1.82895942      -3.74821348       0.08395996       0.02533764      -0.19671404
O       -2.77390918     -14.08987052      -8.33094279      -0.08395996      -0.02533764      -0.19671404
O       -6.16388654      -9.78837439      -0.83451583      -0.08395996       0.02533764       0.19671404
O       -4.00604554      -6.13045555      -5.41724514       0.08395996      -0.02533764       0.19671404
O       -6.20247404     -15.49450445      -8.96708473      -0.08433271       0.00821312      -0.09041212
O       -3.96745804      -0.42432549      -4.38435542       0.08433271      -0.00821312      -0.09041212
O       -0.57748068      -7.53508948      -4.78110320       0.08433271       0.00821312       0.09041212
O       -2.81249668      -8.38374046      -0.19837389      -0.08433271      -0.00821312       0.09041212
O       -0.57748068      -0.42432549      -0.19837389       0.08433271      -0.00821312       0.09041212
O       -2.81249668     -15.49450445      -4.78110320      -0.08433271       0.00821312       0.09041212
O       -6.20247404      -8.38374046      -4.38435542      -0.08433271      -0.00821312      -0.09041212
O       -3.96745804      -7.53508948      -8.96708473       0.08433271       0.00821312      -0.09041212
96
Lattice="-6.73550745 0.0 0.0 0.0 0.0 -9.18525326 0.0 -15.95588278 0.0" Properties=species:S:1:pos:R:3:forces:R:3 e_per_atom_relaxed=-5.569216596145833 mp_id=mp-1001112 energy_per_atom=-5.561821481979166 ef_per_atom_relaxed=-5.569216596145833 corrected_total_energy=-533.9348622699999 ef_per_atom=-1.2520634659374998 task_id=mp-1001112 calc_id=0 ionic_step=0 energy=-526.20686227 stress="-0.004620724365771497 -0.0 0.0 -0.0 0.0017976606777359366 -0.0 0.0 -0.0 0.002537308638276193" pbc="T T T"
Na      -5.02572003     -15.78755029      -6.75499847       0.00060222      -0.00685819       0.01306101
Na      -5.07754114      -0.16833249      -2.16237184      -0.00060222       0.00685819       0.01306101
Na      -1.70978742      -7.80960890      -7.02288142      -0.00060222      -0.00685819      -0.01306101
Na      -1.65796631      -8.14627388      -2.43025479       0.00060222       0.00685819      -0.01306101
Na      -1.70978742      -0.16833249      -2.43025479      -0.00060222       0.00685819      -0.01306101
Na      -1.65796631     -15.78755029      -7.02288142       0.00060222      -0.00685819      -0.01306101
Na      -5.02572003      -8.14627388      -2.16237184       0.00060222       0.00685819       0.01306101
Na      -5.07754114      -7.80960890      -6.75499847      -0.00060222      -0.00685819       0.01306101
Na      -5.10404597     -11.97376338      -9.18188778      -0.00397940       0.00328876       0.01073687
Na      -4.99921521      -3.98211940      -4.58926115       0.00397940      -0.00328876       0.01073687
Na      -1.63146148      -3.99582199      -4.59599211       0.00397940       0.00328876      -0.01073687
Na      -1.73629224     -11.96006079      -0.00336548      -0.00397940      -0.00328876      -0.01073687
Na      -1.63146148      -3.98211940      -0.00336548       0.00397940      -0.00328876      -0.01073687
Na      -1.73629224     -11.97376338      -4.59599211      -0.00397940       0.00328876      -0.01073687
Na      -5.10404597     -11.96006079      -4.58926115      -0.00397940      -0.00328876       0.01073687
Na      -4.99921521      -3.99582199      -9.18188778       0.00397940       0.00328876       0.01073687
H       -0.35917141     -12.96115234      -6.68628515      -0.00030802      -0.02333081       0.15257109
H       -3.00858232      -2.99473044      -2.09365852       0.00030802       0.02333081       0.15257109
H       -6.37633604      -4.98321095      -7.09159474       0.00030802      -0.02333081      -0.15257109
H       -3.72692513     -10.97267183      -2.49896811      -0.00030802       0.02333081      -0.15257109
H       -6.37633604      -2.99473044      -2.49896811       0.00030802       0.02333081      -0.15257109
H       -3.72692513     -12.96115234      -7.09159474      -0.00030802      -0.02333081      -0.15257109
H       -0.35917141     -10.97267183      -2.09365852      -0.00030802       0.02333081       0.15257109
H       -3.00858232      -4.98321095      -6.68628515       0.00030802      -0.02333081       0.15257109
H       -6.42537364     -14.33128607      -4.46555490      -0.07039657       0.10660380       0.11309574
H       -3.67788754      -1.62459671      -9.05818153       0.07039657      -0.10660380       0.11309574
H       -0.31013381      -6.35334468      -0.12707173       0.07039657       0.10660380      -0.11309574
H       -3.05761991      -9.60253810      -4.71969836      -0.07039657      -0.10660380      -0.11309574
H       -0.31013381      -1.62459671      -4.71969836       0.07039657      -0.10660380      -0.11309574
H       -3.05761991     -14.33128607      -0.12707173      -0.07039657       0.10660380      -0.11309574
H       -6.42537364      -9.60253810      -9.05818153      -0.07039657      -0.10660380       0.11309574
H       -3.67788754      -6.35334468      -4.46555490       0.07039657       0.10660380       0.11309574
H       -6.45736339     -14.63521053      -0.22843587      -0.00676282      -0.01378267      -0.16082652
H       -3.64589778      -1.32067225      -4.82106250       0.00676282       0.01378267      -0.16082652
H       -0.27814406      -6.65726914      -4.36419076       0.00676282      -0.01378267       0.16082652
H       -3.08960967      -9.29861364      -8.95681739      -0.00676282       0.01378267       0.16082652
H       -0.27814406      -1.32067225      -8.95681739       0.00676282       0.01378267       0.16082652
H       -3.08960967     -14.63521053      -4.36419076      -0.00676282      -0.01378267       0.16082652
H       -6.45736339      -9.29861364      -4.82106250      -0.00676282       0.01378267      -0.16082652
H       -3.64589778      -6.65726914      -0.22843587       0.00676282      -0.01378267      -0.16082652
C       -0.03035181     -10.55660065      -6.87173376       0.00327905      -0.00453549       0.18497162
C       -3.33740191      -5.39928213      -2.27910713      -0.00327905       0.00453549       0.18497162
C       -6.70515564      -2.57865926      -6.90614613      -0.00327905      -0.00453549      -0.18497162
C       -3.39810554     -13.37722352      -2.31351950       0.00327905       0.00453549      -0.18497162
C       -6.70515564      -5.39928213      -2.31351950      -0.00327905       0.00453549      -0.18497162
C       -3.39810554     -10.55660065      -6.90614613       0.00327905      -0.00453549      -0.18497162
C       -0.03035181     -13.37722352      -2.27910713       0.00327905       0.00453549       0.18497162
C       -3.33740191      -2.57865926      -6.87173376      -0.00327905      -0.00453549       0.18497162
O       -0.07189663     -11.67087653      -7.54461308      -0.03131841      -0.05788367       0.00340734
O       -3.29585710      -4.28500625      -2.95198645       0.03131841       0.05788367       0.00340734
O       -6.66361082      -3.69293514      -6.23326681       0.03131841      -0.05788367      -0.00340734
O       -3.43965035     -12.26294764      -1.64064018      -0.03131841       0.05788367      -0.00340734
O       -6.66361082      -4.28500625      -1.64064018       0.03131841       0.05788367      -0.00340734
O       -3.43965035     -11.67087653      -6.23326681      -0.03131841      -0.05788367      -0.00340734
O       -0.07189663     -12.26294764      -2.95198645      -0.03131841       0.05788367       0.00340734
O       -3.29585710      -3.69293514      -7.54461308       0.03131841      -0.05788367       0.00340734
O       -6.70168867      -9.41729365      -7.49419165       0.02686850       0.00583924      -0.07017852
O       -3.40157251      -6.53858913      -2.90156502      -0.02686850      -0.00583924      -0.07017852
O       -0.03381878      -1.43935226      -6.28368824      -0.02686850       0.00583924       0.07017852
O       -3.33393494     -14.51653052      -1.69106161       0.02686850      -0.00583924       0.07017852
O       -0.03381878      -6.53858913      -1.69106161      -0.02686850      -0.00583924       0.07017852
O       -3.33393494      -9.41729365      -6.28368824       0.02686850       0.00583924       0.07017852
O       -6.70168867     -14.51653052      -2.90156502       0.02686850      -0.00583924      -0.07017852
O       -3.40157251      -1.43935226      -7.49419165      -0.02686850       0.00583924      -0.07017852
O       -0.05325995     -10.60093359      -5.56950238       0.02359267       0.00874712      -0.10776150
O       -3.31449378      -5.35494919      -0.97687575      -0.02359267      -0.00874712      -0.10776150
O       -6.68224750      -2.62299220      -8.20837751      -0.02359267       0.00874712       0.10776150
O       -3.42101367     -13.33289058      -3.61575088       0.02359267      -0.00874712       0.10776150
O       -6.68224750      -5.35494919      -3.61575088      -0.02359267      -0.00874712       0.10776150
O       -3.42101367     -10.60093359      -8.20837751       0.02359267       0.00874712       0.10776150
O       -0.05325995     -13.33289058      -0.97687575       0.02359267      -0.00874712      -0.10776150
O       -3.31449378      -2.62299220      -5.56950238      -0.02359267       0.00874712      -0.10776150
O       -0.65795360     -13.75601650      -6.08627171       0.05644544       0.07488616      -0.07012172
O       -2.70980013      -2.19986628      -1.49364508      -0.05644544      -0.07488616      -0.07012172
O       -6.07755385      -5.77807511      -7.69160818      -0.05644544       0.07488616       0.07012172
O       -4.02570732     -10.17780767      -3.09898155       0.05644544      -0.07488616       0.07012172
O       -6.07755385      -2.19986628      -3.09898155      -0.05644544      -0.07488616       0.07012172
O       -4.02570732     -13.75601650      -7.69160818       0.05644544       0.07488616       0.07012172
O       -0.65795360     -10.17780767      -1.49364508       0.05644544      -0.07488616      -0.07012172
O       -2.70980013      -5.77807511      -6.08627171      -0.05644544       0.07488616      -0.07012172
O       -6.12057300     -14.12408409      -5.42632192       0.00530372       0.01481812      -0.06444821
O       -3.98268818      -1.83179869      -0.83369529      -0.00530372      -0.01481812      -0.06444821
O       -0.61493445      -6.14614270      -8.35155797      -0.00530372       0.01481812       0.06444821
O       -2.75281927      -9.80974008      -3.75893134       0.00530372      -0.01481812       0.06444821
O       -0.61493445      -1.83179869      -3.75893134      -0.00530372      -0.01481812       0.06444821
O       -2.75281927     -14.12408409      -8.35155797       0.00530372       0.01481812       0.06444821
O       -6.12057300      -9.80974008      -0.83369529       0.00530372      -0.01481812      -0.06444821
O       -3.98268818      -6.14614270      -5.42632192      -0.00530372       0.01481812      -0.06444821
O       -6.16203058     -15.52927529      -8.98745260       0.03131331      -0.04255701       0.03933873
O       -3.94123059      -0.42660749      -4.39482597      -0.03131331       0.04255701       0.03933873
O       -0.57347687      -7.55133390      -4.79042729      -0.03131331      -0.04255701      -0.03933873
O       -2.79427686      -8.40454888      -0.19780066       0.03131331       0.04255701      -0.03933873
O       -0.57347687      -0.42660749      -0.19780066      -0.03131331       0.04255701      -0.03933873
O       -2.79427686     -15.52927529      -4.79042729       0.03131331      -0.04255701      -0.03933873
O       -6.16203058      -8.40454888      -4.39482597       0.03131331       0.04255701       0.03933873
O       -3.94123059      -7.55133390      -8.98745260      -0.03131331      -0.04255701       0.03933873
96
Lattice="-6.66431234 0.0 0.0 0.0 0.0 -9.15570316 0.0 -15.8444297 0.0" Properties=species:S:1:pos:R:3:forces:R:3 e_per_atom_relaxed=-5.569216596145833 mp_id=mp-1001112 energy_per_atom=-5.5542982988541665 ef_per_atom_relaxed=-5.569216596145833 corrected_total_energy=-533.21263669 ef_per_atom=-1.2445402828124998 task_id=mp-1001112 calc_id=1 ionic_step=2 energy=-525.48463669 stress="-0.011245428397902633 -0.0 -0.0 -0.0 -0.0035329147963560153 -0.0 -0.0 -0.0 -0.00020777226160857484" pbc="T T T"
Na      -4.97384194     -15.67358793      -6.73547021       0.01713659      -0.04299276       0.02863455
Na      -5.02262657      -0.17084177      -2.15761863      -0.01713659       0.04299276       0.02863455
Na      -1.69047040      -7.75137308      -6.99808453      -0.01713659      -0.04299276      -0.02863455
Na      -1.64168577      -8.09305662      -2.42023295       0.01713659       0.04299276      -0.02863455
Na      -1.69047040      -0.17084177      -2.42023295      -0.01713659       0.04299276      -0.02863455
Na      -1.64168577     -15.67358793      -6.99808453       0.01713659      -0.04299276      -0.02863455
Na      -4.97384194      -8.09305662      -2.15761863       0.01713659       0.04299276       0.02863455
Na      -5.02262657      -7.75137308      -6.73547021      -0.01713659      -0.04299276       0.02863455
Na      -5.04948015     -11.88955183      -9.15398134      -0.00647602      -0.01456515       0.02185757
Na      -4.94698836      -3.95487787      -4.57612976       0.00647602       0.01456515       0.02185757
Na      -1.61483219      -3.96733698      -4.57957340       0.00647602      -0.01456515      -0.02185757
Na      -1.71732398     -11.87709272      -0.00172182      -0.00647602       0.01456515      -0.02185757
Na      -1.61483219      -3.95487787      -0.00172182       0.00647602       0.01456515      -0.02185757
Na      -1.71732398     -11.88955183      -4.57957340      -0.00647602      -0.01456515      -0.02185757
Na      -5.04948015     -11.87709272      -4.57612976      -0.00647602       0.01456515       0.02185757
Na      -4.94698836      -3.96733698      -9.15398134       0.00647602      -0.01456515       0.02185757
H       -0.34364587     -12.88579760      -6.66754176      -0.25900210       0.05174428       0.08182835
H       -2.98851030      -2.95863210      -2.08969018       0.25900210      -0.05174428       0.08182835
H       -6.32066647      -4.96358275      -7.06601298       0.25900210       0.05174428      -0.08182835
H       -3.67580204     -10.88084695      -2.48816140      -0.25900210      -0.05174428      -0.08182835
H       -6.32066647      -2.95863210      -2.48816140       0.25900210      -0.05174428      -0.08182835
H       -3.67580204     -12.88579760      -7.06601298      -0.25900210       0.05174428      -0.08182835
H       -0.34364587     -10.88084695      -2.08969018      -0.25900210      -0.05174428       0.08182835
H       -2.98851030      -4.96358275      -6.66754176       0.25900210       0.05174428       0.08182835
H       -6.36827586     -14.24151498      -4.47046132       0.24144612       0.10824102       0.09609168
H       -3.62819265      -1.60291472      -9.04831290      -0.24144612      -0.10824102       0.09609168
H       -0.29603648      -6.31930013      -0.10739026      -0.24144612       0.10824102      -0.09609168
H       -3.03611969      -9.52512957      -4.68524184       0.24144612      -0.10824102      -0.09609168
H       -0.29603648      -1.60291472      -4.68524184      -0.24144612      -0.10824102      -0.09609168
H       -3.03611969     -14.24151498      -0.10739026       0.24144612       0.10824102      -0.09609168
H       -6.36827586      -9.52512957      -9.04831290       0.24144612      -0.10824102       0.09609168
H       -3.62819265      -6.31930013      -4.47046132      -0.24144612       0.10824102       0.09609168
H       -6.43176216     -14.58734390      -0.21598679       0.75295460       0.46942022       0.09637131
H       -3.56470635      -1.25708580      -4.79383837      -0.75295460      -0.46942022       0.09637131
H       -0.23255018      -6.66512905      -4.36186479      -0.75295460       0.46942022      -0.09637131
H       -3.09960599      -9.17930065      -8.93971637       0.75295460      -0.46942022      -0.09637131
H       -0.23255018      -1.25708580      -8.93971637      -0.75295460      -0.46942022      -0.09637131
H       -3.09960599     -14.58734390      -4.36186479       0.75295460       0.46942022      -0.09637131
H       -6.43176216      -9.17930065      -4.79383837       0.75295460      -0.46942022       0.09637131
H       -3.56470635      -6.66512905      -0.21598679      -0.75295460       0.46942022       0.09637131
C       -0.02979287     -10.48303943      -6.84285013      -0.01605244      -0.16600717      -0.24882790
C       -3.30236330      -5.36139027      -2.26499855       0.01605244       0.16600717      -0.24882790
C       -6.63451947      -2.56082458      -6.89070461       0.01605244      -0.16600717       0.24882790
C       -3.36194904     -13.28360512      -2.31285303      -0.01605244       0.16600717       0.24882790
C       -6.63451947      -5.36139027      -2.31285303       0.01605244       0.16600717       0.24882790
C       -3.36194904     -10.48303943      -6.89070461      -0.01605244      -0.16600717       0.24882790
C       -0.02979287     -13.28360512      -2.26499855      -0.01605244       0.16600717      -0.24882790
C       -3.30236330      -2.56082458      -6.84285013       0.01605244      -0.16600717      -0.24882790
O       -0.07181283     -11.59822537      -7.53467804       0.03075976       0.32901105       0.34660472
O       -3.26034334      -4.24620433      -2.95682646      -0.03075976      -0.32901105       0.34660472
O       -6.59249951      -3.67601052      -6.19887670      -0.03075976       0.32901105      -0.34660472
O       -3.40396900     -12.16841918      -1.62102512       0.03075976      -0.32901105      -0.34660472
O       -6.59249951      -4.24620433      -1.62102512      -0.03075976      -0.32901105      -0.34660472
O       -3.40396900     -11.59822537      -6.19887670       0.03075976       0.32901105      -0.34660472
O       -0.07181283     -12.16841918      -2.95682646       0.03075976      -0.32901105       0.34660472
O       -3.26034334      -3.67601052      -7.53467804      -0.03075976       0.32901105       0.34660472
O       -6.63155471      -9.33657531      -7.46433194      -0.01020190      -0.28349776       0.03571679
O       -3.36491380      -6.50785439      -2.88648036       0.01020190       0.28349776       0.03571679
O       -0.03275763      -1.41436046      -6.26922280       0.01020190      -0.28349776      -0.03571679
O       -3.29939854     -14.43006924      -1.69137122      -0.01020190       0.28349776      -0.03571679
O       -0.03275763      -6.50785439      -1.69137122       0.01020190       0.28349776      -0.03571679
O       -3.29939854      -9.33657531      -6.26922280      -0.01020190      -0.28349776      -0.03571679
O       -6.63155471     -14.43006924      -2.88648036      -0.01020190       0.28349776       0.03571679
O       -3.36491380      -1.41436046      -7.46433194       0.01020190      -0.28349776       0.03571679
O       -0.05008904     -10.53990746      -5.54531779      -0.03956474       0.22991191      -0.16348954
O       -3.28206713      -5.30452224      -0.96746621       0.03956474      -0.22991191      -0.16348954
O       -6.61422330      -2.61769261      -8.18823695       0.03956474       0.22991191       0.16348954
O       -3.38224521     -13.22673709      -3.61038537      -0.03956474      -0.22991191       0.16348954
O       -6.61422330      -5.30452224      -3.61038537       0.03956474      -0.22991191       0.16348954
O       -3.38224521     -10.53990746      -8.18823695      -0.03956474       0.22991191       0.16348954
O       -0.05008904     -13.22673709      -0.96746621      -0.03956474      -0.22991191      -0.16348954
O       -3.28206713      -2.61769261      -5.54531779       0.03956474       0.22991191      -0.16348954
O       -0.66336805     -13.66159823      -6.05227192       0.17238569       0.23915625      -0.36949343
O       -2.66878812      -2.18283147      -1.47442034      -0.17238569      -0.23915625      -0.36949343
O       -6.00094429      -5.73938338      -7.68128282      -0.17238569       0.23915625       0.36949343
O       -3.99552422     -10.10504632      -3.10343124       0.17238569      -0.23915625       0.36949343
O       -6.00094429      -2.18283147      -3.10343124      -0.17238569      -0.23915625       0.36949343
O       -3.99552422     -13.66159823      -7.68128282       0.17238569       0.23915625       0.36949343
O       -0.66336805     -10.10504632      -1.47442034       0.17238569      -0.23915625      -0.36949343
O       -2.66878812      -5.73938338      -6.05227192      -0.17238569       0.23915625      -0.36949343
O       -6.04154868     -14.01748045      -5.42248653      -0.17866809      -0.17516709       0.37873262
O       -3.95491983      -1.82694925      -0.84463495       0.17866809       0.17516709       0.37873262
O       -0.62276366      -6.09526560      -8.31106821       0.17866809      -0.17516709      -0.37873262
O       -2.70939251      -9.74916410      -3.73321663      -0.17866809       0.17516709      -0.37873262
O       -0.62276366      -1.82694925      -3.73321663       0.17866809       0.17516709      -0.37873262
O       -2.70939251     -14.01748045      -8.31106821      -0.17866809      -0.17516709      -0.37873262
O       -6.04154868      -9.74916410      -0.84463495      -0.17866809       0.17516709       0.37873262
O       -3.95491983      -6.09526560      -5.42248653       0.17866809      -0.17516709       0.37873262
O       -6.07773476     -15.45298625      -8.94091448      -0.27751320       0.95413744      -0.40318717
O       -3.91873375      -0.39144345      -4.36306290       0.27751320      -0.95413744      -0.40318717
O       -0.58657758      -7.53077140      -4.79264026       0.27751320       0.95413744       0.40318717
O       -2.74557859      -8.31365830      -0.21478868      -0.27751320      -0.95413744       0.40318717
O       -0.58657758      -0.39144345      -0.21478868       0.27751320      -0.95413744       0.40318717
O       -2.74557859     -15.45298625      -4.79264026      -0.27751320       0.95413744       0.40318717
O       -6.07773476      -8.31365830      -4.36306290      -0.27751320      -0.95413744      -0.40318717
O       -3.91873375      -7.53077140      -8.94091448       0.27751320       0.95413744      -0.40318717
96
Lattice="-6.69948131 0.0 0.0 0.0 0.0 -9.2982619 0.0 -16.09361711 0.0" Properties=species:S:1:pos:R:3:forces:R:3 e_per_atom_relaxed=-5.569216596145833 mp_id=mp-1001112 energy_per_atom=-5.466500313749999 ef_per_atom_relaxed=-5.569216596145833 corrected_total_energy=-524.7840301199999 ef_per_atom=-1.1567422977083326 task_id=mp-1001112 calc_id=1 ionic_step=1 energy=-517.05603012 stress="-0.010077246959163717 -0.0 0.0 -0.0 0.07345149777010153 -0.0 0.0 -0.0 0.08243969985908811" pbc="T T T"
Na      -5.00008733     -15.92383605      -6.83981094       0.05684076       0.18146874       0.06665779
Na      -5.04913463      -0.16978106      -2.19067999      -0.05684076      -0.18146874       0.06665779
Na      -1.69939398      -7.87702749      -7.10758191      -0.05684076       0.18146874      -0.06665779
Na      -1.65034668      -8.21658962      -2.45845096       0.05684076      -0.18146874      -0.06665779
Na      -1.69939398      -0.16978106      -2.45845096      -0.05684076      -0.18146874      -0.06665779
Na      -1.65034668     -15.92383605      -7.10758191       0.05684076       0.18146874      -0.06665779
Na      -5.00008733      -8.21658962      -2.19067999       0.05684076      -0.18146874       0.06665779
Na      -5.04913463      -7.87702749      -6.83981094      -0.05684076       0.18146874       0.06665779
Na      -5.07630746     -12.07710396      -9.29581860      -0.01980632       0.01502871       0.01681200
Na      -4.97291450      -4.01651315      -4.64668765       0.01980632      -0.01502871       0.01681200
Na      -1.62317385      -4.03029540      -4.65157425       0.01980632       0.01502871      -0.01681200
Na      -1.72656681     -12.06332171      -0.00244330      -0.01980632      -0.01502871      -0.01681200
Na      -1.62317385      -4.01651315      -0.00244330       0.01980632      -0.01502871      -0.01681200
Na      -1.72656681     -12.07710396      -4.65157425      -0.01980632       0.01502871      -0.01681200
Na      -5.07630746     -12.06332171      -4.64668765      -0.01980632      -0.01502871       0.01681200
Na      -4.97291450      -4.03029540      -9.29581860       0.01980632       0.01502871       0.01681200
H       -0.35043627     -13.07860364      -6.77232834      -0.55914164      -0.55696639       0.37773683
H       -2.99930439      -3.01501347      -2.12319739       0.55914164       0.55696639       0.37773683
H       -6.34904504      -5.03179508      -7.17506451       0.55914164      -0.55696639      -0.37773683
H       -3.70017692     -11.06182203      -2.52593356      -0.55914164       0.55696639      -0.37773683
H       -6.34904504      -3.01501347      -2.52593356       0.55914164       0.55696639      -0.37773683
H       -3.70017692     -13.07860364      -7.17506451      -0.55914164      -0.55696639      -0.37773683
H       -0.35043627     -11.06182203      -2.12319739      -0.55914164       0.55696639       0.37773683
H       -2.99930439      -5.03179508      -6.77232834       0.55914164      -0.55696639       0.37773683
H       -6.42401432     -14.47979892      -4.46013745       1.16145925       0.57748111      -1.94208979
H       -3.62520765      -1.61381819      -9.10926840      -1.16145925      -0.57748111      -1.94208979
H       -0.27546699      -6.43299036      -0.18899350      -1.16145925       0.57748111       1.94208979
H       -3.07427366      -9.66062675      -4.83812445       1.16145925      -0.57748111       1.94208979
H       -0.27546699      -1.61381819      -4.83812445      -1.16145925      -0.57748111       1.94208979
H       -3.07427366     -14.47979892      -0.18899350       1.16145925       0.57748111       1.94208979
H       -6.42401432      -9.66062675      -9.10926840       1.16145925      -0.57748111      -1.94208979
H       -3.62520765      -6.43299036      -4.46013745      -1.16145925       0.57748111      -1.94208979
H       -6.48269735     -14.70805919      -0.26366533       1.62204386      -1.47342612       1.01940056
H       -3.56652462      -1.38555792      -4.91279628      -1.62204386       1.47342612       1.01940056
H       -0.21678396      -6.66125064      -4.38546562      -1.62204386      -1.47342612      -1.01940056
H       -3.13295669      -9.43236647      -9.03459657       1.62204386       1.47342612      -1.01940056
H       -0.21678396      -1.38555792      -9.03459657      -1.62204386       1.47342612      -1.01940056
H       -3.13295669     -14.70805919      -4.38546562       1.62204386      -1.47342612      -1.01940056
H       -6.48269735      -9.43236647      -4.91279628       1.62204386       1.47342612       1.01940056
H       -3.56652462      -6.66125064      -0.26366533      -1.62204386      -1.47342612       1.01940056
C       -0.03033525     -10.63904705      -6.94213543      -0.01713631      -0.92332392      -1.21195444
C       -3.31940540      -5.45457006      -2.29300448       0.01713631       0.92332392      -1.21195444
C       -6.66914606      -2.59223850      -7.00525742       0.01713631      -0.92332392       1.21195444
C       -3.38007591     -13.50137861      -2.35612647      -0.01713631       0.92332392       1.21195444
C       -6.66914606      -5.45457006      -2.35612647       0.01713631       0.92332392       1.21195444
C       -3.38007591     -10.63904705      -7.00525742      -0.01713631      -0.92332392       1.21195444
C       -0.03033525     -13.50137861      -2.29300448      -0.01713631       0.92332392      -1.21195444
C       -3.31940540      -2.59223850      -6.94213543       0.01713631      -0.92332392      -1.21195444
O       -0.07286255     -11.81430034      -7.66781642       0.12518009       2.98036034       2.03028948
O       -3.27687810      -4.27931677      -3.01868547      -0.12518009      -2.98036034       2.03028948
O       -6.62661876      -3.76749179      -6.27957643      -0.12518009       2.98036034      -2.03028948
O       -3.42260321     -12.32612532      -1.63044548       0.12518009      -2.98036034      -2.03028948
O       -6.62661876      -4.27931677      -1.63044548      -0.12518009      -2.98036034      -2.03028948
O       -3.42260321     -11.81430034      -6.27957643       0.12518009       2.98036034      -2.03028948
O       -0.07286255     -12.32612532      -3.01868547       0.12518009      -2.98036034       2.03028948
O       -3.27687810      -3.76749179      -7.66781642      -0.12518009       2.98036034       2.03028948
O       -6.66626200      -9.46053078      -7.59084754      -0.03120168      -2.32508534       0.66575418
O       -3.38295997      -6.63308633      -2.94171659       0.03120168       2.32508534       0.66575418
O       -0.03321931      -1.41372223      -6.35654531       0.03120168      -2.32508534      -0.66575418
O       -3.31652134     -14.67989488      -1.70741436      -0.03120168       2.32508534      -0.66575418
O       -0.03321931      -6.63308633      -1.70741436       0.03120168       2.32508534      -0.66575418
O       -3.31652134      -9.46053078      -6.35654531      -0.03120168      -2.32508534      -0.66575418
O       -6.66626200     -14.67989488      -2.94171659      -0.03120168       2.32508534       0.66575418
O       -3.38295997      -1.41372223      -7.59084754       0.03120168      -2.32508534       0.66575418
O       -0.05347010     -10.70490648      -5.60958627       0.12491819       0.93825137      -1.77759874
O       -3.29627055      -5.38871063      -0.96045532      -0.12491819      -0.93825137      -1.77759874
O       -6.64601121      -2.65809792      -8.33780658      -0.12491819       0.93825137       1.77759874
O       -3.40321076     -13.43551919      -3.68867563       0.12491819      -0.93825137       1.77759874
O       -6.64601121      -5.38871063      -3.68867563      -0.12491819      -0.93825137       1.77759874
O       -3.40321076     -10.70490648      -8.33780658       0.12491819       0.93825137       1.77759874
O       -0.05347010     -13.43551919      -0.96045532       0.12491819      -0.93825137      -1.77759874
O       -3.29627055      -2.65809792      -5.60958627      -0.12491819       0.93825137      -1.77759874
O       -0.65730065     -13.87917499      -6.15018331      -0.08489881       1.00686174      -1.02948247
O       -2.69244001      -2.21444212      -1.50105236       0.08489881      -1.00686174      -1.02948247
O       -6.04218066      -5.83236643      -7.79720954       0.08489881       1.00686174       1.02948247
O       -4.00704130     -10.26125068      -3.14807859      -0.08489881      -1.00686174       1.02948247
O       -6.04218066      -2.21444212      -3.14807859       0.08489881      -1.00686174       1.02948247
O       -4.00704130     -13.87917499      -7.79720954      -0.08489881       1.00686174       1.02948247
O       -0.65730065     -10.26125068      -1.50105236      -0.08489881      -1.00686174      -1.02948247
O       -2.69244001      -5.83236643      -6.15018331       0.08489881       1.00686174      -1.02948247
O       -6.05545381     -14.22314660      -5.58420015      -0.64439627      -0.89213377       3.47402082
O       -3.99376816      -1.87047051      -0.93506920       0.64439627       0.89213377       3.47402082
O       -0.64402750      -6.17633805      -8.36319270       0.64439627      -0.89213377      -3.47402082
O       -2.70571315      -9.91727906      -3.71406175      -0.64439627       0.89213377      -3.47402082
O       -0.64402750      -1.87047051      -3.71406175       0.64439627       0.89213377      -3.47402082
O       -2.70571315     -14.22314660      -8.36319270      -0.64439627      -0.89213377      -3.47402082
O       -6.05545381      -9.91727906      -0.93506920      -0.64439627       0.89213377       3.47402082
O       -3.99376816      -6.17633805      -5.58420015       0.64439627      -0.89213377       3.47402082
O       -6.08582008     -15.77497942      -9.04425031      -0.72875976       4.07079252      -1.60314353
O       -3.96340189      -0.31863769      -4.39511936       0.72875976      -4.07079252      -1.60314353
O       -0.61366123      -7.72817087      -4.90314254       0.72875976       4.07079252       1.60314353
O       -2.73607942      -8.36544624      -0.25401159      -0.72875976      -4.07079252       1.60314353
O       -0.61366123      -0.31863769      -0.25401159       0.72875976      -4.07079252       1.60314353
O       -2.73607942     -15.77497942      -4.90314254      -0.72875976       4.07079252       1.60314353
O       -6.08582008      -8.36544624      -4.39511936      -0.72875976      -4.07079252      -1.60314353
O       -3.96340189      -7.72817087      -9.04425031       0.72875976       4.07079252      -1.60314353
96
Lattice="-6.6521 0.0 0.0 0.0 0.0 -9.1062 0.0 -15.7579 0.0" Properties=species:S:1:pos:R:3:forces:R:3 e_per_atom_relaxed=-5.569216596145833 mp_id=mp-1001112 energy_per_atom=-5.538631283229167 ef_per_atom_relaxed=-5.569216596145833 corrected_total_energy=-531.70860319 ef_per_atom=-1.2288732671875 task_id=mp-1001112 calc_id=1 ionic_step=0 energy=-523.98060319 stress="-0.014848899666330722 -0.0 0.0 -0.0 -0.04441412086294749 -0.0 0.0 -0.0 -0.04396934244666766" pbc="T T T"
Na      -4.96472831     -15.58661163      -6.69924922       0.00007296      -0.10465918       0.01490813
Na      -5.01342169      -0.17128837      -2.14614922      -0.00007296       0.10465918       0.01490813
Na      -1.68737169      -7.70766163      -6.96005078      -0.00007296      -0.10465918      -0.01490813
Na      -1.63867831      -8.05023837      -2.40695078       0.00007296       0.10465918      -0.01490813
Na      -1.68737169      -0.17128837      -2.40695078      -0.00007296       0.10465918      -0.01490813
Na      -1.63867831     -15.58661163      -6.96005078       0.00007296      -0.10465918      -0.01490813
Na      -4.96472831      -8.05023837      -2.14614922       0.00007296       0.10465918       0.01490813
Na      -5.01342169      -7.70766163      -6.69924922      -0.00007296      -0.10465918       0.01490813
Na      -5.04016313     -11.82441300      -9.10474301      -0.00503135      -0.01574000       0.01939875
Na      -4.93798687      -3.93348700      -4.55164301       0.00503135       0.01574000       0.01939875
Na      -1.61193687      -3.94546300      -4.55455699       0.00503135      -0.01574000      -0.01939875
Na      -1.71411313     -11.81243700      -0.00145699      -0.00503135       0.01574000      -0.01939875
Na      -1.61193687      -3.93348700      -0.00145699       0.00503135       0.01574000      -0.01939875
Na      -1.71411313     -11.82441300      -4.55455699      -0.00503135      -0.01574000      -0.01939875
Na      -5.04016313     -11.81243700      -4.55164301      -0.00503135       0.01574000       0.01939875
Na      -4.93798687      -3.94546300      -9.10474301       0.00503135      -0.01574000       0.01939875
H       -0.34125273     -12.81905165      -6.63113484      -0.13898736       0.27509205      -0.02708114
H       -2.98479727      -2.93884835      -2.07803484       0.13898736      -0.27509205      -0.02708114
H       -6.31084727      -4.94010165      -7.02816516       0.13898736       0.27509205       0.02708114
H       -3.66730273     -10.81779835      -2.47506516      -0.13898736      -0.27509205       0.02708114
H       -6.31084727      -2.93884835      -2.47506516       0.13898736      -0.27509205       0.02708114
H       -3.66730273     -12.81905165      -7.02816516      -0.13898736       0.27509205       0.02708114
H       -0.34125273     -10.81779835      -2.07803484      -0.13898736      -0.27509205      -0.02708114
H       -2.98479727      -4.94010165      -6.63113484       0.13898736       0.27509205      -0.02708114
H       -6.34876424     -14.15847315      -4.47569730      -0.61806270      -0.39950719       2.23219406
H       -3.62938576      -1.59942685      -9.02879730       0.61806270       0.39950719       2.23219406
H       -0.30333576      -6.27952315      -0.07740270       0.61806270      -0.39950719      -2.23219406
H       -3.02271424      -9.47837685      -4.63050270      -0.61806270       0.39950719      -2.23219406
H       -0.30333576      -1.59942685      -4.63050270       0.61806270       0.39950719      -2.23219406
H       -3.02271424     -14.15847315      -0.07740270      -0.61806270      -0.39950719      -2.23219406
H       -6.34876424      -9.47837685      -9.02879730      -0.61806270       0.39950719       2.23219406
H       -3.62938576      -6.27952315      -4.47569730       0.61806270      -0.39950719       2.23219406
H       -6.41395482     -14.54769328      -0.19851516      -0.47456731       3.03565658      -1.23757674
H       -3.56419518      -1.21020672      -4.75161516       0.47456731      -3.03565658      -1.23757674
H       -0.23814518      -6.66874328      -4.35458484       0.47456731       3.03565658       1.23757674
H       -3.08790482      -9.08915672      -8.90768484      -0.47456731      -3.03565658       1.23757674
H       -0.23814518      -1.21020672      -8.90768484       0.47456731      -3.03565658       1.23757674
H       -3.08790482     -14.54769328      -4.35458484      -0.47456731       3.03565658       1.23757674
H       -6.41395482      -9.08915672      -4.75161516      -0.47456731      -3.03565658      -1.23757674
H       -3.56419518      -6.66874328      -0.19851516       0.47456731       3.03565658      -1.23757674
C       -0.02960184     -10.42905096      -6.80852362      -0.01075468       0.24744309       0.20278155
C       -3.29644815      -5.32884904      -2.25542362       0.01075468      -0.24744309       0.20278155
C       -6.62249816      -2.55010096      -6.85077638       0.01075468       0.24744309      -0.20278155
C       -3.35565184     -13.20779904      -2.29767638      -0.01075468      -0.24744309      -0.20278155
C       -6.62249816      -5.32884904      -2.29767638       0.01075468      -0.24744309      -0.20278155
C       -3.35565184     -10.42905096      -6.85077638      -0.01075468       0.24744309      -0.20278155
C       -0.02960184     -13.20779904      -2.25542362      -0.01075468      -0.24744309       0.20278155
C       -3.29644815      -2.55010096      -6.80852362       0.01075468       0.24744309       0.20278155
O       -0.07144355     -11.52249164      -7.48811932      -0.01873238      -0.94023026      -0.44179062
O       -3.25460645      -4.23540836      -2.93501932       0.01873238       0.94023026      -0.44179062
O       -6.58065645      -3.64354164      -6.17118068       0.01873238      -0.94023026       0.44179062
O       -3.39749355     -12.11435836      -1.61808068      -0.01873238       0.94023026       0.44179062
O       -6.58065645      -4.23540836      -1.61808068       0.01873238       0.94023026       0.44179062
O       -3.39749355     -11.52249164      -6.17118068      -0.01873238      -0.94023026       0.44179062
O       -0.07144355     -12.11435836      -2.93501932      -0.01873238       0.94023026      -0.44179062
O       -3.25460645      -3.64354164      -7.48811932       0.01873238      -0.94023026      -0.44179062
O       -6.61950471      -9.29400942      -7.42018707       0.00806513       0.63901599      -0.28742942
O       -3.35864529      -6.46389058      -2.86708707      -0.00806513      -0.63901599      -0.28742942
O       -0.03259529      -1.41505942      -6.23911293      -0.00806513       0.63901599       0.28742942
O       -3.29345471     -14.34284058      -1.68601293       0.00806513      -0.63901599       0.28742942
O       -0.03259529      -6.46389058      -1.68601293      -0.00806513      -0.63901599       0.28742942
O       -3.29345471      -9.29400942      -6.23911293       0.00806513       0.63901599       0.28742942
O       -6.61950471     -14.34284058      -2.86708707       0.00806513      -0.63901599      -0.28742942
O       -3.35864529      -1.41505942      -7.42018707      -0.00806513       0.63901599      -0.28742942
O       -0.04889293     -10.48262782      -5.52345667      -0.08703862       0.02131852       0.61647181
O       -3.27715706      -5.27527218      -0.97035667       0.08703862      -0.02131852       0.61647181
O       -6.60320707      -2.60367782      -8.13584333       0.08703862       0.02131852      -0.61647181
O       -3.37494293     -13.15422218      -3.58274333      -0.08703862      -0.02131852      -0.61647181
O       -6.60320707      -5.27527218      -3.58274333       0.08703862      -0.02131852      -0.61647181
O       -3.37494293     -10.48262782      -8.13584333      -0.08703862       0.02131852      -0.61647181
O       -0.04889293     -13.15422218      -0.97035667      -0.08703862      -0.02131852       0.61647181
O       -3.27715706      -2.60367782      -5.52345667       0.08703862       0.02131852       0.61647181
O       -0.66554260     -13.58598864      -6.01819652       0.26720481      -0.07592908      -0.10261773
O       -2.66050740      -2.17191136      -1.46509652      -0.26720481       0.07592908      -0.10261773
O       -5.98655740      -5.70703864      -7.64110348      -0.26720481      -0.07592908       0.10261773
O       -3.99159260     -10.05086136      -3.08800348       0.26720481       0.07592908       0.10261773
O       -5.98655740      -2.17191136      -3.08800348      -0.26720481       0.07592908       0.10261773
O       -3.99159260     -13.58598864      -7.64110348       0.26720481      -0.07592908       0.10261773
O       -0.66554260     -10.05086136      -1.46509652       0.26720481       0.07592908      -0.10261773
O       -2.66050740      -5.70703864      -6.01819652      -0.26720481      -0.07592908      -0.10261773
O       -6.03684727     -13.94637182      -5.36473561       0.50204463       0.41299167      -2.15823703
O       -3.94130273      -1.81152818      -0.81163561      -0.50204463      -0.41299167      -2.15823703
O       -0.61525273      -6.06742182      -8.29456439      -0.50204463       0.41299167       2.15823703
O       -2.71079727      -9.69047818      -3.74146439       0.50204463      -0.41299167       2.15823703
O       -0.61525273      -1.81152818      -3.74146439      -0.50204463      -0.41299167       2.15823703
O       -2.71079727     -13.94637182      -8.29456439       0.50204463       0.41299167       2.15823703
O       -6.03684727      -9.69047818      -0.81163561       0.50204463      -0.41299167      -2.15823703
O       -3.94130273      -6.06742182      -5.36473561      -0.50204463       0.41299167      -2.15823703
O       -6.07509685     -15.33952776      -8.90577254       0.66990630      -2.20513215       1.00196377
O       -3.90305315      -0.41837224      -4.35267254      -0.66990630       2.20513215       1.00196377
O       -0.57700315      -7.46057775      -4.75352746      -0.66990630      -2.20513215      -1.00196377
O       -2.74904685      -8.29732224      -0.20042746       0.66990630       2.20513215      -1.00196377
O       -0.57700315      -0.41837224      -0.20042746      -0.66990630       2.20513215      -1.00196377
O       -2.74904685     -15.33952776      -4.75352746       0.66990630      -2.20513215      -1.00196377
O       -6.07509685      -8.29732224      -4.35267254       0.66990630       2.20513215       1.00196377
O       -3.90305315      -7.46057775      -8.90577254      -0.66990630      -2.20513215       1.00196377
96
Lattice="6.871644 0.0 0.0 0.0 9.158787 0.0 0.0 0.0 15.92961" Properties=species:S:1:pos:R:3:forces:R:3:magmoms:R:1 bandgap=3.8318000000000003 e_per_atom_relaxed=-5.569216596145833 mp_id=mp-1001112 energy_per_atom=-5.569216596145834 ef_per_atom_relaxed=-5.569216596145833 corrected_total_energy=-534.64479323 ef_per_atom=-1.2594585801041671 task_id=mp-1337598 calc_id=0 ionic_step=0 energy=-526.91679323 stress="-0.0022505755690028356 -0.0 -0.0 -0.0 -0.0016010007053524472 -0.0 -0.0 -0.0 -0.0019487449694784614" pbc="T T T"
Na       1.73848470       7.01037370       8.14152809      -0.01742918      -0.00352048       0.01097799       0.00000000
Na       1.69733730       2.43098020       7.78808191       0.01742918      -0.00352048      -0.01097799       0.00000000
Na       5.13315930       6.72780680       0.17672309       0.01742918       0.00352048       0.01097799       0.00000000
Na       5.17430670       2.14841330      15.75288691      -0.01742918       0.00352048      -0.01097799       0.00000000
Na       5.13315930       2.14841330       7.78808191       0.01742918       0.00352048      -0.01097799       0.00000000
Na       5.17430670       6.72780680       8.14152809      -0.01742918       0.00352048       0.01097799       0.00000000
Na       1.73848470       2.43098020      15.75288691      -0.01742918      -0.00352048      -0.01097799       0.00000000
Na       1.69733730       7.01037370       0.17672309       0.01742918      -0.00352048       0.01097799       0.00000000
Na       1.66330205       4.58783790      11.94317731       0.00235618       0.00457593       0.00314629      -0.00000000
Na       1.77251995       0.00844440       3.98643269      -0.00235618       0.00457593      -0.00314629      -0.00000000
Na       5.20834195       9.15034260       3.97837231      -0.00235618      -0.00457593       0.00314629      -0.00000000
Na       5.09912405       4.57094910      11.95123769       0.00235618      -0.00457593      -0.00314629      -0.00000000
Na       5.20834195       4.57094910       3.98643269      -0.00235618      -0.00457593      -0.00314629      -0.00000000
Na       5.09912405       9.15034260      11.94317731       0.00235618      -0.00457593       0.00314629      -0.00000000
Na       1.66330205       0.00844440      11.95123769       0.00235618       0.00457593      -0.00314629      -0.00000000
Na       1.77251995       4.58783790       3.97837231      -0.00235618       0.00457593       0.00314629      -0.00000000
H        6.50970077       7.09397511      10.96858784      -0.01121425       0.00723533      -0.01027267       0.00000000
H        3.79776523       2.51458161       4.96102216       0.01121425       0.00723533       0.01027267       0.00000000
H        0.36194323       6.64420539       3.00378284       0.01121425      -0.00723533      -0.01027267       0.00000000
H        3.07387877       2.06481189      12.92582716      -0.01121425      -0.00723533       0.01027267       0.00000000
H        0.36194323       2.06481189       4.96102216       0.01121425      -0.00723533       0.01027267       0.00000000
H        3.07387877       6.64420539      10.96858784      -0.01121425      -0.00723533      -0.01027267       0.00000000
H        6.50970077       2.51458161      12.92582716      -0.01121425       0.00723533       0.01027267       0.00000000
H        3.79776523       7.09397511       3.00378284       0.01121425       0.00723533      -0.01027267       0.00000000
H        0.30556827       0.15235642       9.62334820       0.00600961      -0.00514467       0.00461647       0.00000000
H        3.13025373       4.73174992       6.30626180      -0.00600961      -0.00514467      -0.00461647       0.00000000
H        6.56607573       4.42703708       1.65854320      -0.00600961       0.00514467       0.00461647       0.00000000
H        3.74139027       9.00643058      14.27106680       0.00600961       0.00514467      -0.00461647       0.00000000
H        6.56607573       9.00643058       6.30626180      -0.00600961       0.00514467      -0.00461647       0.00000000
H        3.74139027       4.42703708       9.62334820       0.00600961       0.00514467       0.00461647       0.00000000
H        0.30556827       4.73174992      14.27106680       0.00600961      -0.00514467      -0.00461647       0.00000000
H        3.13025373       0.15235642       1.65854320      -0.00600961      -0.00514467       0.00461647       0.00000000
H        0.29395519       4.30958479       9.27253040       0.03020366       0.00306451      -0.01497486       0.00000000
H        3.14186681       8.88897829       6.65707960      -0.03020366       0.00306451       0.01497486       0.00000000
H        6.57768881       0.26980871       1.30772540      -0.03020366      -0.00306451      -0.01497486       0.00000000
H        3.72977719       4.84920221      14.62188460       0.03020366      -0.00306451       0.01497486       0.00000000
H        6.57768881       4.84920221       6.65707960      -0.03020366      -0.00306451       0.01497486       0.00000000
H        3.72977719       0.26980871       9.27253040       0.03020366      -0.00306451      -0.01497486       0.00000000
H        0.29395519       8.88897829      14.62188460       0.03020366       0.00306451       0.01497486       0.00000000
H        3.14186681       4.30958479       1.30772540      -0.03020366       0.00306451      -0.01497486       0.00000000
C        6.84385507       6.88696820      13.35074951      -0.00236024       0.00459482       0.02561795       0.00000000
C        3.46361093       2.30757470       2.57886049       0.00236024       0.00459482      -0.02561795       0.00000000
C        0.02778893       6.85121230       5.38594451       0.00236024      -0.00459482       0.02561795       0.00000000
C        3.40803307       2.27181880      10.54366549      -0.00236024      -0.00459482      -0.02561795       0.00000000
C        0.02778893       2.27181880       2.57886049       0.00236024      -0.00459482      -0.02561795       0.00000000
C        3.40803307       6.85121230      13.35074951      -0.00236024      -0.00459482       0.02561795       0.00000000
C        6.84385507       2.30757470      10.54366549      -0.00236024       0.00459482      -0.02561795       0.00000000
C        3.46361093       6.88696820       5.38594451       0.00236024       0.00459482       0.02561795       0.00000000
O        6.78497195       6.21713116      12.23618656      -0.00785278      -0.02899538      -0.04676753      -0.00000000
O        3.52249405       1.63773766       3.69342344       0.00785278      -0.02899538       0.04676753       0.00000000
O        0.08667205       7.52104934       4.27138156       0.00785278       0.02899538      -0.04676753       0.00000000
O        3.34914995       2.94165584      11.65822844      -0.00785278       0.02899538       0.04676753       0.00000000
O        0.08667205       2.94165584       3.69342344       0.00785278       0.02899538       0.04676753       0.00000000
O        3.34914995       7.52104934      12.23618656      -0.00785278       0.02899538      -0.04676753       0.00000000
O        6.78497195       1.63773766      11.65822844      -0.00785278      -0.02899538       0.04676753       0.00000000
O        3.52249405       6.21713116       4.27138156       0.00785278      -0.02899538      -0.04676753       0.00000000
O        0.04551777       6.25498442      14.48625990       0.00833131       0.05635040       0.00554608      -0.00000000
O        3.39030423       1.67559092       1.44335010      -0.00833131       0.05635040      -0.00554608      -0.00000000
O        6.82612623       7.48319608       6.52145490      -0.00833131      -0.05635040       0.00554608      -0.00000000
O        3.48133977       2.90380258       9.40815510       0.00833131      -0.05635040      -0.00554608      -0.00000000
O        6.82612623       2.90380258       1.44335010      -0.00833131      -0.05635040      -0.00554608      -0.00000000
O        3.48133977       7.48319608      14.48625990       0.00833131      -0.05635040       0.00554608      -0.00000000
O        0.04551777       1.67559092       9.40815510       0.00833131       0.05635040      -0.00554608      -0.00000000
O        3.39030423       6.25498442       6.52145490      -0.00833131       0.05635040       0.00554608      -0.00000000
O        6.83016676       8.18605971      13.31242287       0.00316239      -0.02208332       0.00690382      -0.00000000
O        3.47729924       3.60666621       2.61718713      -0.00316239      -0.02208332      -0.00690382      -0.00000000
O        0.04147724       5.55212079       5.34761787      -0.00316239       0.02208332       0.00690382      -0.00000000
O        3.39434476       0.97272729      10.58199213       0.00316239       0.02208332      -0.00690382      -0.00000000
O        0.04147724       0.97272729       2.61718713      -0.00316239       0.02208332      -0.00690382      -0.00000000
O        3.39434476       5.55212079      13.31242287       0.00316239       0.02208332       0.00690382      -0.00000000
O        6.83016676       3.60666621      10.58199213       0.00316239      -0.02208332      -0.00690382      -0.00000000
O        3.47729924       8.18605971       5.34761787      -0.00316239      -0.02208332       0.00690382      -0.00000000
O        6.21361537       7.67494444      10.16449299      -0.00397229      -0.00438613       0.01980313      -0.00000000
O        4.09385063       3.09555094       5.76511701       0.00397229      -0.00438613      -0.01980313      -0.00000000
O        0.65802863       6.06323606       2.19968799       0.00397229       0.00438613       0.01980313      -0.00000000
O        2.77779337       1.48384256      13.72992201      -0.00397229       0.00438613      -0.01980313      -0.00000000
O        0.65802863       1.48384256       5.76511701       0.00397229       0.00438613      -0.01980313      -0.00000000
O        2.77779337       6.06323606      10.16449299      -0.00397229       0.00438613       0.01980313      -0.00000000
O        6.21361537       3.09555094      13.72992201      -0.00397229      -0.00438613      -0.01980313      -0.00000000
O        4.09385063       7.67494444       2.19968799       0.00397229      -0.00438613       0.01980313      -0.00000000
O        0.61339730       8.33808641       9.80348023       0.00377536       0.02075425       0.01125226      -0.00000000
O        2.82242470       3.75869291       6.12612977      -0.00377536       0.02075425      -0.01125226      -0.00000000
O        6.25824670       5.40009409       1.83867523      -0.00377536      -0.02075425       0.01125226      -0.00000000
O        4.04921930       0.82070059      14.09093477       0.00377536      -0.02075425      -0.01125226      -0.00000000
O        6.25824670       0.82070059       6.12612977      -0.00377536      -0.02075425      -0.01125226      -0.00000000
O        4.04921930       5.40009409       9.80348023       0.00377536      -0.02075425       0.01125226      -0.00000000
O        0.61339730       3.75869291      14.09093477       0.00377536       0.02075425      -0.01125226      -0.00000000
O        2.82242470       8.33808641       1.83867523      -0.00377536       0.02075425       0.01125226      -0.00000000
O        0.58759428       4.75437213       8.38337143      -0.02287374      -0.06531135      -0.00463575       0.00000000
O        2.84822772       0.17497863       7.54623857       0.02287374      -0.06531135       0.00463575       0.00000000
O        6.28404972       8.98380837       0.41856643       0.02287374       0.06531135      -0.00463575       0.00000000
O        4.02341628       4.40441487      15.51104357      -0.02287374       0.06531135       0.00463575       0.00000000
O        6.28404972       4.40441487       7.54623857       0.02287374       0.06531135       0.00463575       0.00000000
O        4.02341628       8.98380837       8.38337143      -0.02287374       0.06531135      -0.00463575       0.00000000
O        0.58759428       0.17497863      15.51104357      -0.02287374      -0.06531135       0.00463575       0.00000000
O        2.84822772       4.75437213       0.41856643       0.02287374      -0.06531135      -0.00463575       0.00000000
4
Lattice="0.0 0.0 -3.92804371 0.0 -3.32612002 0.0 -4.6853228 1.66306001 0.0" Properties=species:S:1:pos:R:3:forces:R:3:magmoms:R:1 bandgap=0.0 e_per_atom_relaxed=-4.9354900675 mp_id=mp-1001113 energy_per_atom=-4.932871935 ef_per_atom_relaxed=-4.9354900675 corrected_total_energy=-19.73148774 ef_per_atom=0.49051872000000074 task_id=mp-1097874 calc_id=0 ionic_step=2 energy=-19.73148774 stress="-5.428143119238306e-05 -0.0 -0.0 -0.0 -0.0007841567238527515 -0.0 -0.0 -0.0 -0.0007744303991781228" pbc="T T T"
Si      -3.65813053      -0.82912549       0.00000000       0.01615221       0.00026226      -0.00000000      -0.00000000
Si      -1.12472031      -0.83393617       0.00000000      -0.00354159      -0.00026226      -0.00000000      -0.00000000
Si      -0.93779631      -2.49218550      -1.96402185      -0.01615221       0.00026226       0.00000000      -0.00000000
Si      -3.47120653       0.82912381      -1.96402185       0.00354159      -0.00026226      -0.00000000      -0.00000000
4
Lattice="0.0 0.0 -3.93312074 0.0 -3.32733978 0.0 -4.68116141 1.66366989 0.0" Properties=species:S:1:pos:R:3:forces:R:3 e_per_atom_relaxed=-4.9354900675 mp_id=mp-1001113 energy_per_atom=-4.9332610275 ef_per_atom_relaxed=-4.9354900675 corrected_total_energy=-19.73304411 ef_per_atom=0.4901296275 task_id=mp-1097874 calc_id=0 ionic_step=1 energy=-19.73304411 stress="-0.0008837615975777945 -0.0 -0.0 -0.0 9.237314293482918e-05 -0.0 -0.0 -0.0 0.0007813675681866497" pbc="T T T"
Si      -3.65467854      -0.82949511       0.00000000       0.00593695       0.00069775       0.00000000
Si      -1.12483379      -0.83417641       0.00000000       0.00995040      -0.00069775      -0.00000000
Si      -0.93716631      -2.49316503      -1.96656037      -0.00593695       0.00069775       0.00000000
Si      -3.46701106       0.82949345      -1.96656037      -0.00995040      -0.00069775      -0.00000000
4
Lattice="0.0 0.0 -3.93804056 0.0 -3.32852176 0.0 -4.67712888 1.66426088 0.0" Properties=species:S:1:pos:R:3:forces:R:3 e_per_atom_relaxed=-4.9354900675 mp_id=mp-1001113 energy_per_atom=-4.9336233675 ef_per_atom_relaxed=-4.9354900675 corrected_total_energy=-19.73449347 ef_per_atom=0.4897672875000003 task_id=mp-1097874 calc_id=0 ionic_step=0 energy=-19.73449347 stress="-0.001166047884949889 -0.0 -0.0 -0.0 0.00048026248168306823 -0.0 -0.0 -0.0 0.001689610080971168" pbc="T T T"
Si      -3.65133358      -0.82985333       0.00000000      -0.00407629       0.00131735      -0.00000000
Si      -1.12494280      -0.83440920       0.00000000       0.02234503      -0.00131735       0.00000000
Si      -0.93655568      -2.49411421      -1.96902028       0.00407629       0.00131735      -0.00000000
Si      -3.46294646       0.82985168      -1.96902028      -0.02234503      -0.00131735      -0.00000000
4
Lattice="0.0 0.0 -3.94035878 0.0 -3.30410873 0.0 -4.6665403 1.65205436 0.0" Properties=species:S:1:pos:R:3:forces:R:3 e_per_atom_relaxed=-4.9354900675 mp_id=mp-1001113 energy_per_atom=-4.9347534575 ef_per_atom_relaxed=-4.9354900675 corrected_total_energy=-19.73901383 ef_per_atom=0.4886371975000001 task_id=mp-1097874 calc_id=1 ionic_step=2 energy=-19.73901383 stress="-0.0050441146157561 -0.0 -0.0 -0.0 -0.006582345924342675 -0.0 -0.0 -0.0 -0.001939685874612408" pbc="T T T"
Si      -3.64377051      -0.82371631       0.00000000      -0.00642134      -0.00000692       0.00000000
Si      -1.12343696      -0.82833971       0.00000000       0.02488902       0.00000692      -0.00000000
Si      -0.93373220      -2.47577067      -1.97017939       0.00642134      -0.00000692       0.00000000
Si      -3.45406575       0.82371465      -1.97017939      -0.02488902       0.00000692      -0.00000000
4
Lattice="0.0 0.0 -3.96366587 0.0 -3.28519398 0.0 -4.6892576 1.64259699 0.0" Properties=species:S:1:pos:R:3:forces:R:3 e_per_atom_relaxed=-4.9354900675 mp_id=mp-1001113 energy_per_atom=-4.9362180225 ef_per_atom_relaxed=-4.9354900675 corrected_total_energy=-19.74487209 ef_per_atom=0.4871726325000001 task_id=mp-1097874 calc_id=1 ionic_step=1 energy=-19.74487209 stress="0.0019099391229863588 -0.0 -0.0 -0.0 -0.007580165202969862 -0.0 -0.0 -0.0 0.002605613017817917" pbc="T T T"
Si      -3.66435020      -0.81886413       0.00000000       0.02652555      -0.00124240       0.00000000
Si      -1.12816996      -0.82373448       0.00000000       0.00708387       0.00124240       0.00000000
Si      -0.93543636      -2.46146112      -1.98183293      -0.02652555      -0.00124240      -0.00000000
Si      -3.47161660       0.81886251      -1.98183293      -0.00708387       0.00124240       0.00000000
4
Lattice="0.0 0.0 -3.991753 0.0 -3.2624 0.0 -4.716634 1.6312 0.0" Properties=species:S:1:pos:R:3:forces:R:3 e_per_atom_relaxed=-4.9354900675 mp_id=mp-1001113 energy_per_atom=-4.9362349975 ef_per_atom_relaxed=-4.9354900675 corrected_total_energy=-19.74493999 ef_per_atom=0.48715565750000067 task_id=mp-1097874 calc_id=1 ionic_step=0 energy=-19.74493999 stress="0.007835018672118674 -0.0 -0.0 -0.0 -0.009431457527107613 -0.0 -0.0 -0.0 0.009498164972848916" pbc="T T T"
Si      -3.68916717      -0.81301781       0.00000000       0.07097637      -0.00341468      -0.00000000
Si      -1.13386938      -0.81818382       0.00000000      -0.01838570       0.00341468      -0.00000000
Si      -0.93747346      -2.44421781      -1.99587650      -0.07097637      -0.00341468       0.00000000
Si      -3.49277124       0.81301618      -1.99587650       0.01838570       0.00341468       0.00000000
4
Lattice="0.0 0.0 -3.93427654 0.0 -3.33376306 0.0 -4.67731113 1.66688153 0.0" Properties=species:S:1:pos:R:3:forces:R:3 e_per_atom_relaxed=-4.9354900675 mp_id=mp-1001113 energy_per_atom=-4.93313507 ef_per_atom_relaxed=-4.9354900675 corrected_total_energy=-19.73254028 ef_per_atom=0.49025558500000077 task_id=mp-1120444 calc_id=1 ionic_step=3 energy=-19.73254028 stress="-0.0013281562421860052 -0.0 -0.0 -0.0 0.0016712449584135138 -0.0 -0.0 -0.0 0.0017020588832699064" pbc="T T T"
Si      -3.65065902      -0.83117714       0.00000000      -0.00778760       0.00016000      -0.00000000
Si      -1.12520404      -0.83570604       0.00000000       0.02454824      -0.00016000       0.00000000
Si      -0.93740902      -2.49805867      -1.96713827       0.00778760       0.00016000      -0.00000000
Si      -3.46286399       0.83117549      -1.96713827      -0.02454824      -0.00016000       0.00000000
4
Lattice="0.0 0.0 -3.97631305 0.0 -3.34540137 0.0 -4.67438467 1.67270069 0.0" Properties=species:S:1:pos:R:3:forces:R:3 e_per_atom_relaxed=-4.9354900675 mp_id=mp-1001113 energy_per_atom=-4.94311094 ef_per_atom_relaxed=-4.9354900675 corrected_total_energy=-19.77244376 ef_per_atom=0.480279715 task_id=mp-1001113 calc_id=1 ionic_step=15 energy=-19.77244376 stress="0.0010725434872105209 -0.0 -0.0 -0.0 0.01737176437895005 -0.0 -0.0 -0.0 4.308826449204419e-05" pbc="T T T"
Si      -3.67628472      -0.81473242       0.00000000       0.09223507      -0.13547749       0.00000000
Si      -1.12336229      -0.85796827       0.00000000      -0.02289325       0.13547749       0.00000000
Si      -0.90891269      -2.48743311      -1.98815652      -0.09223507      -0.13547749       0.00000000
Si      -3.46183512       0.81473241      -1.98815652       0.02289325       0.13547749       0.00000000
4
Lattice="0.0 0.0 -3.99375215 0.0 -3.32103866 0.0 -4.63189599 1.66051933 0.0" Properties=species:S:1:pos:R:3:forces:R:3 e_per_atom_relaxed=-4.9354900675 mp_id=mp-1001113 energy_per_atom=-4.939511445 ef_per_atom_relaxed=-4.9354900675 corrected_total_energy=-19.75804578 ef_per_atom=0.48387921000000045 task_id=mp-1001113 calc_id=1 ionic_step=14 energy=-19.75804578 stress="-0.008533529463919637 -0.0 -0.0 -0.0 0.004790009266374136 -0.0 -0.0 -0.0 -0.001985835599330698" pbc="T T T"
Si      -3.67766099      -0.82360973       0.00000000       0.42801776      -0.04248710       0.00000000
Si      -1.09080192      -0.83690960       0.00000000      -0.29386318       0.04248710       0.00000000
Si      -0.86585843      -2.48412906      -1.99687608      -0.42801776      -0.04248710       0.00000000
Si      -3.45271750       0.82360973      -1.99687608       0.29386318       0.04248710       0.00000000
4
Lattice="0.0 0.0 -4.00268685 0.0 -3.30855673 0.0 -4.61012744 1.65427837 0.0" Properties=species:S:1:pos:R:3:forces:R:3 e_per_atom_relaxed=-4.9354900675 mp_id=mp-1001113 energy_per_atom=-4.9327658725 ef_per_atom_relaxed=-4.9354900675 corrected_total_energy=-19.73106349 ef_per_atom=0.4906247825000003 task_id=mp-1001113 calc_id=1 ionic_step=13 energy=-19.73106349 stress="-0.012731496799531878 -0.0 -0.0 -0.0 0.0007949109376992852 -0.0 -0.0 -0.0 -0.0060314815011935545" pbc="T T T"
Si      -3.67820258      -0.82810225       0.00000000       0.57755978       0.00784451       0.00000000
Si      -1.07422502      -0.82617611       0.00000000      -0.41323973      -0.00784451       0.00000000
Si      -0.84396363      -2.48238062      -2.00134342      -0.57755978       0.00784451       0.00000000
Si      -3.44794119       0.82810226      -2.00134342       0.41323973      -0.00784451       0.00000000
4
Lattice="0.0 0.0 -3.9819661 0.0 -3.32433427 0.0 -4.60586701 1.66216714 0.0" Properties=species:S:1:pos:R:3:forces:R:3 e_per_atom_relaxed=-4.9354900675 mp_id=mp-1001113 energy_per_atom=-4.931868915 ef_per_atom_relaxed=-4.9354900675 corrected_total_energy=-19.72747566 ef_per_atom=0.4915217400000005 task_id=mp-1001113 calc_id=1 ionic_step=12 energy=-19.72747566 stress="-0.015090718598756877 -0.0 -0.0 -0.0 0.003578337691095087 -0.0 -0.0 -0.0 -0.011153731066851429" pbc="T T T"
Si      -3.67335350      -0.82385816       0.00000000       0.58824793      -0.04700465       0.00000000
Si      -1.07281922      -0.83830896       0.00000000      -0.42632469       0.04700465       0.00000000
Si      -0.84463356      -2.48602533      -1.99098305      -0.58824793      -0.04700465       0.00000000
Si      -3.44516784       0.82385818      -1.99098305       0.42632469       0.04700465       0.00000000
4
Lattice="0.0 0.0 -3.93243164 0.0 -3.36205162 0.0 -4.59568215 1.68102581 0.0" Properties=species:S:1:pos:R:3:forces:R:3 e_per_atom_relaxed=-4.9354900675 mp_id=mp-1001113 energy_per_atom=-4.924769905 ef_per_atom_relaxed=-4.9354900675 corrected_total_energy=-19.69907962 ef_per_atom=0.4986207500000006 task_id=mp-1001113 calc_id=1 ionic_step=11 energy=-19.69907962 stress="-0.023367490009500957 -0.0 -0.0 -0.0 0.015685755218080386 -0.0 -0.0 -0.0 -0.027467321597806203" pbc="T T T"
Si      -3.66176458      -0.81361943       0.00000000       0.67645785      -0.18962758       0.00000000
Si      -1.06945949      -0.86740638       0.00000000      -0.52472436       0.18962758       0.00000000
Si      -0.84623195      -2.49464524      -1.96621582      -0.67645785      -0.18962758       0.00000000
Si      -3.43853704       0.81361943      -1.96621582       0.52472436       0.18962758       0.00000000
4
Lattice="0.0 0.0 -3.82737306 0.0 -3.44204705 0.0 -4.57408089 1.72102353 0.0" Properties=species:S:1:pos:R:3:forces:R:3 e_per_atom_relaxed=-4.9354900675 mp_id=mp-1001113 energy_per_atom=-4.8848134075 ef_per_atom_relaxed=-4.9354900675 corrected_total_energy=-19.53925363 ef_per_atom=0.5385772475000001 task_id=mp-1001113 calc_id=1 ionic_step=10 energy=-19.53925363 stress="-0.03985749454895554 -0.0 -0.0 -0.0 0.015568295527583823 -0.0 -0.0 -0.0 -0.047967470996815594" pbc="T T T"
Si      -3.63720177      -0.79143784       0.00000000       0.90670089      -0.56288653       0.00000000
Si      -1.06233843      -0.92958569       0.00000000      -0.80373251       0.56288653       0.00000000
Si      -0.84960566      -2.51246134      -1.91368653      -0.90670089      -0.56288653       0.00000000
Si      -3.42446900       0.79143783      -1.91368653       0.80373251       0.56288653       0.00000000
4
Lattice="0.0 0.0 -3.80911629 0.0 -3.47706909 0.0 -4.60114971 1.73853455 0.0" Properties=species:S:1:pos:R:3:forces:R:3 e_per_atom_relaxed=-4.9354900675 mp_id=mp-1001113 energy_per_atom=-4.883941895 ef_per_atom_relaxed=-4.9354900675 corrected_total_energy=-19.53576758 ef_per_atom=0.53944876 task_id=mp-1001113 calc_id=1 ionic_step=9 energy=-19.53576758 stress="-0.029123306278618245 -0.0 -0.0 -0.0 0.015344642420087425 -0.0 -0.0 -0.0 -0.044157947689109106" pbc="T T T"
Si      -3.64240640      -0.78473200       0.00000000       0.70937598      -0.65205778       0.00000000
Si      -1.07844319      -0.95380252       0.00000000      -0.65613947       0.65205778       0.00000000
Si      -0.87095338      -2.52326655      -1.90455814      -0.70937598      -0.65205778       0.00000000
Si      -3.43491658       0.78473202      -1.90455814       0.65613947       0.65205778       0.00000000
4
Lattice="0.0 0.0 -3.89085609 0.0 -3.32026733 0.0 -4.47995634 1.66013366 0.0" Properties=species:S:1:pos:R:3:forces:R:3 e_per_atom_relaxed=-4.9354900675 mp_id=mp-1001113 energy_per_atom=-4.855025735 ef_per_atom_relaxed=-4.9354900675 corrected_total_energy=-19.42010294 ef_per_atom=0.5683649200000005 task_id=mp-1001113 calc_id=1 ionic_step=8 energy=-19.42010294 stress="-0.07294343844665843 -0.0 -0.0 -0.0 -0.012730151673175634 -0.0 -0.0 -0.0 -0.07691860386058132" pbc="T T T"
Si      -3.61953404      -0.81542104       0.00000000       1.61789837      -0.16001623       0.00000000
Si      -1.00607997      -0.84471262       0.00000000      -1.35462494       0.16001623       0.00000000
Si      -0.77494473      -2.47555473      -1.94542805      -1.61789837      -0.16001623       0.00000000
Si      -3.38839881       0.81542105      -1.94542805       1.35462494       0.16001623       0.00000000
4
Lattice="0.0 0.0 -3.75804404 0.0 -3.57504117 0.0 -4.67687314 1.78752059 0.0" Properties=species:S:1:pos:R:3:forces:R:3 e_per_atom_relaxed=-4.9354900675 mp_id=mp-1001113 energy_per_atom=-4.862961145 ef_per_atom_relaxed=-4.9354900675 corrected_total_energy=-19.45184458 ef_per_atom=0.5604295100000005 task_id=mp-1001113 calc_id=1 ionic_step=7 energy=-19.45184458 stress="-0.0023531994232430134 -0.0 -0.0 -0.0 0.009867151058605686 -0.0 -0.0 -0.0 -0.0327612638448007" pbc="T T T"
Si      -3.65990910      -0.77062734       0.00000000       0.30683057      -0.85843740       0.00000000
Si      -1.12172464      -1.01689325       0.00000000      -0.34838957       0.85843740       0.00000000
Si      -0.92772930      -2.55814793      -1.87902202      -0.30683057      -0.85843740       0.00000000
Si      -3.46591376       0.77062733      -1.87902202       0.34838957       0.85843740       0.00000000
4
Lattice="0.0 0.0 -3.69163802 0.0 -3.70242809 0.0 -4.77533155 1.85121405 0.0" Properties=species:S:1:pos:R:3:forces:R:3 e_per_atom_relaxed=-4.9354900675 mp_id=mp-1001113 energy_per_atom=-4.820160335 ef_per_atom_relaxed=-4.9354900675 corrected_total_energy=-19.28064134 ef_per_atom=0.6032303200000007 task_id=mp-1001113 calc_id=1 ionic_step=6 energy=-19.28064134 stress="-0.0038119849214566692 -0.0 -0.0 -0.0 -0.005485926505163494 -0.0 -0.0 -0.0 -0.00847701606282233" pbc="T T T"
Si      -3.67759729      -0.74440487       0.00000000       0.18039280      -1.04137179       0.00000000
Si      -1.18105057      -1.10680915       0.00000000      -0.35731110       1.04137179       0.00000000
Si      -1.00662093      -2.59561892      -1.84581901      -0.18039280      -1.04137179       0.00000000
Si      -3.50316766       0.74440490      -1.84581901       0.35731110       1.04137179       0.00000000
4
Lattice="0.0 0.0 -3.66950268 0.0 -3.7448904 0.0 -4.80815101 1.8724452 0.0" Properties=species:S:1:pos:R:3:forces:R:3 e_per_atom_relaxed=-4.9354900675 mp_id=mp-1001113 energy_per_atom=-4.805559095 ef_per_atom_relaxed=-4.9354900675 corrected_total_energy=-19.22223638 ef_per_atom=0.6178315600000008 task_id=mp-1001113 calc_id=1 ionic_step=5 energy=-19.22223638 stress="-0.0025215920002519617 -0.0 -0.0 -0.0 -0.008689481752048296 -0.0 -0.0 -0.0 -0.013323454270192282" pbc="T T T"
Si      -3.68308536      -0.73504842       0.00000000       0.15125112      -1.13067198       0.00000000
Si      -1.20107131      -1.13739680       0.00000000      -0.37591100       1.13067198       0.00000000
Si      -1.03332613      -2.60749362      -1.83475134      -0.15125112      -1.13067198       0.00000000
Si      -3.51534017       0.73504840      -1.83475134       0.37591100       1.13067198       0.00000000
4
Lattice="0.0 0.0 -3.57027064 0.0 -4.21480136 0.0 -5.11930151 2.10740068 0.0" Properties=species:S:1:pos:R:3:forces:R:3 e_per_atom_relaxed=-4.9354900675 mp_id=mp-1001113 energy_per_atom=-4.71303782 ef_per_atom_relaxed=-4.9354900675 corrected_total_energy=-18.85215128 ef_per_atom=0.7103528350000001 task_id=mp-1001113 calc_id=1 ionic_step=4 energy=-18.85215128 stress="0.021354827361615186 -0.0 -0.0 -0.0 0.03241584916778234 -0.0 -0.0 -0.0 -0.001081894765843284" pbc="T T T"
Si      -3.74933143      -0.78662446       0.00000000      -0.45426860      -0.43211967       0.00000000
Si      -1.40817543      -1.32077622       0.00000000       0.24464320       0.43211967       0.00000000
Si      -1.27229381      -2.89402514      -1.78513532       0.45426860      -0.43211967       0.00000000
Si      -3.61344981       0.78662442      -1.78513532      -0.24464320       0.43211967       0.00000000
4
Lattice="0.0 0.0 -3.52065462 0.0 -4.44975685 0.0 -5.27487676 2.22487842 0.0" Properties=species:S:1:pos:R:3:forces:R:3 e_per_atom_relaxed=-4.9354900675 mp_id=mp-1001113 energy_per_atom=-4.6253104725 ef_per_atom_relaxed=-4.9354900675 corrected_total_energy=-18.50124189 ef_per_atom=0.7980801825000006 task_id=mp-1001113 calc_id=1 ionic_step=3 energy=-18.50124189 stress="0.014098738220709409 -0.0 -0.0 -0.0 0.02768468737725823 -0.0 -0.0 -0.0 0.0010539630325880239" pbc="T T T"
Si      -3.77722441      -0.81014594       0.00000000      -0.57373466      -0.17066240       0.00000000
Si      -1.51565930      -1.41473244       0.00000000       0.41692270       0.17066240       0.00000000
Si      -1.39700770      -3.03502436      -1.76032731       0.57373466      -0.17066240       0.00000000
Si      -3.65857281       0.81014593      -1.76032731      -0.41692270       0.17066240       0.00000000
4
Lattice="0.0 0.0 -3.50411594 0.0 -4.52807534 0.0 -5.32673517 2.26403767 0.0" Properties=species:S:1:pos:R:3:forces:R:3 e_per_atom_relaxed=-4.9354900675 mp_id=mp-1001113 energy_per_atom=-4.6009052875 ef_per_atom_relaxed=-4.9354900675 corrected_total_energy=-18.40362115 ef_per_atom=0.8224853675000006 task_id=mp-1001113 calc_id=1 ionic_step=2 energy=-18.40362115 stress="0.012397444134518732 -0.0 -0.0 -0.0 0.02259536733342402 -0.0 -0.0 -0.0 0.001484098238066114" pbc="T T T"
Si      -3.78567611      -0.81762866       0.00000000      -0.56222496      -0.04132043       0.00000000
Si      -1.55212322      -1.44640901       0.00000000       0.42596638       0.04132043       0.00000000
Si      -1.43942495      -3.08166633      -1.75205797       0.56222496      -0.04132043       0.00000000
Si      -3.67297785       0.81762866      -1.75205797      -0.42596638       0.04132043       0.00000000
4
Lattice="0.0 0.0 -3.65587317 0.0 -4.6494034 0.0 -5.39677154 2.3247017 0.0" Properties=species:S:1:pos:R:3:forces:R:3 e_per_atom_relaxed=-4.9354900675 mp_id=mp-1001113 energy_per_atom=-4.5401010825 ef_per_atom_relaxed=-4.9354900675 corrected_total_energy=-18.16040433 ef_per_atom=0.8832895725000007 task_id=mp-1001113 calc_id=1 ionic_step=1 energy=-18.16040433 stress="0.034848134153974544 -0.0 -0.0 -0.0 0.06118976247515596 -0.0 -0.0 -0.0 0.04533855888730242" pbc="T T T"
Si      -3.86524026      -0.87678196       0.00000000      -0.13008426       0.59414205       0.00000000
Si      -1.55122464      -1.44791974       0.00000000       0.08177097      -0.59414205       0.00000000
Si      -1.42856088      -3.20148366      -1.82793659       0.13008426       0.59414205       0.00000000
Si      -3.74257650       0.87678196      -1.82793659      -0.08177097      -0.59414205       0.00000000
4
Lattice="0.0 0.0 -3.3139 0.0 -4.376 0.0 -5.23895 2.188 0.0" Properties=species:S:1:pos:R:3:forces:R:3 e_per_atom_relaxed=-4.9354900675 mp_id=mp-1001113 energy_per_atom=-4.465164195 ef_per_atom_relaxed=-4.9354900675 corrected_total_energy=-17.86065678 ef_per_atom=0.9582264600000006 task_id=mp-1001113 calc_id=1 ionic_step=0 energy=-17.86065678 stress="-0.03287683951080158 -0.0 -0.0 -0.0 -0.06818590805890756 -0.0 -0.0 -0.0 -0.1126213333021318" pbc="T T T"
Si      -3.68507743      -0.74129440       0.00000000      -1.39148446      -1.73973186       0.00000000
Si      -1.55387257      -1.44670560       0.00000000       0.99520799       1.73973186       0.00000000
Si      -1.45391340      -2.92929440      -1.65695000       1.39148446      -1.73973186       0.00000000
Si      -3.58511826       0.74129440      -1.65695000      -0.99520799       1.73973186       0.00000000
4
Lattice="1.6312 -4.716634 0.0 1.6312 4.716634 0.0 0.0 0.0 3.991753" Properties=species:S:1:pos:R:3:forces:R:3:magmoms:R:1 bandgap=0.0 e_per_atom_relaxed=-4.9354900675 mp_id=mp-1001113 energy_per_atom=-4.9354900675 ef_per_atom_relaxed=-4.9354900675 corrected_total_energy=-19.74196027 ef_per_atom=0.4879005875000004 task_id=mp-1415499 calc_id=0 ionic_step=0 energy=-19.74196027 stress="-0.012528094162288752 -0.0 -0.0 -0.0 0.003154748773875006 -0.0 -0.0 -0.0 0.010163831208489946" pbc="T T T"
Si       1.63120000      -3.73415914       2.99381475       0.00000000       0.09141156      -0.00000000       0.00000000
Si       1.63120000      -1.17886607       2.99381475      -0.00000000      -0.05436157      -0.00000000       0.00000000
Si       1.63120000       3.73415914       0.99793825      -0.00000000      -0.09141156       0.00000000      -0.00000000
Si       1.63120000       1.17886607       0.99793825      -0.00000000       0.05436157       0.00000000      -0.00000000
3
Lattice="3.43667156 0.12877608 6.19921074 1.70286892 2.98789761 6.19921074 0.21235777 0.12877608 7.08490151" Properties=species:S:1:pos:R:3:forces:R:3 bandgap=0 e_per_atom_relaxed=-8.0937791 mp_id=mp-10014 energy_per_atom=-8.088988673333334 ef_per_atom_relaxed=-8.0937791 corrected_total_energy=-24.26696602 ef_per_atom=-1.378763002083333 task_id=mp-10014 calc_id=0 ionic_step=18 energy=-23.26096602 stress="9.228486927126181e-05 -2.1750336103768467e-05 -0.000130573226000228 -2.1750336103768467e-05 0.0001149625438349175 -7.918103307278019e-05 -0.000130573226000228 -7.918103307278019e-05 -0.00034719323249283557" pbc="T T T"
S        3.08521205       1.87090641      11.23156309      -0.00023112      -0.00014015      -0.00084136
S        2.26794331       1.37530569       8.25633634      -0.00063708      -0.00038633      -0.00231925
Ta       0.89250995       0.54122782       3.24913870       0.00086819       0.00052648       0.00316062
3
Lattice="3.47131818 0.14986536 6.32559569 1.73758575 3.0088711 6.32559569 0.24713498 0.14986536 7.21125059" Properties=species:S:1:pos:R:3:forces:R:3 e_per_atom_relaxed=-8.0937791 mp_id=mp-10014 energy_per_atom=-8.088983353333333 ef_per_atom_relaxed=-8.0937791 corrected_total_energy=-24.26695006 ef_per_atom=-1.378757682083332 task_id=mp-10014 calc_id=0 ionic_step=17 energy=-23.26095006 stress="0.00011774369164481069 6.063039413937753e-06 3.639806575811944e-05 6.063039413937753e-06 0.00011142215388891536 2.2072185763353764e-05 3.639806575811944e-05 2.2072185763353764e-05 0.00024025084063940426" pbc="T T T"
S        3.13738103       1.90254226      11.42148173       0.00015723       0.00009535       0.00057239
S        2.31990256       1.40681435       8.44549146      -0.00030995      -0.00018796      -0.00112837
Ta       0.90991387       0.55178175       3.31249679       0.00015272       0.00009261       0.00055599
3
Lattice="3.48350962 0.15701277 6.36918517 1.7495594 3.01637766 6.36918517 0.25892139 0.15701277 7.25495133" Properties=species:S:1:pos:R:3:forces:R:3 e_per_atom_relaxed=-8.0937791 mp_id=mp-10014 energy_per_atom=-8.088914053333333 ef_per_atom_relaxed=-8.0937791 corrected_total_energy=-24.26674216 ef_per_atom=-1.3786883820833322 task_id=mp-10014 calc_id=0 ionic_step=16 energy=-23.26074216 stress="0.0002737605419438661 8.524216258492542e-07 5.117332192693047e-06 8.524216258492542e-07 0.00027287177601037683 3.1032096807887712e-06 5.117332192693047e-06 3.1032096807887712e-06 0.00029098425476163333" pbc="T T T"
S        3.15527717       1.91339467      11.48663174       0.00070129       0.00042527       0.00255301
S        2.33797673       1.41777472       8.51128959      -0.00139703      -0.00084717      -0.00508581
Ta       0.91589891       0.55541114       3.33428506       0.00069574       0.00042190       0.00253280
3
Lattice="3.46397321 0.14569015 6.29975687 1.73048806 3.00428812 6.29975687 0.24024986 0.14569015 7.18528545" Properties=species:S:1:pos:R:3:forces:R:3 e_per_atom_relaxed=-8.0937791 mp_id=mp-10014 energy_per_atom=-8.088988706666667 ef_per_atom_relaxed=-8.0937791 corrected_total_energy=-24.26696612 ef_per_atom=-1.3787630354166656 task_id=mp-10014 calc_id=0 ionic_step=15 energy=-23.26096612 stress="-0.00022286634654655423 2.391259459326646e-06 1.435537112538548e-05 2.391259459326646e-06 -0.00022535955481594303 8.705257472197912e-06 1.435537112538548e-05 8.705257472197912e-06 -0.00017454960730881237" pbc="T T T"
S        3.12659665       1.89600249      11.38222168       0.00278909       0.00169134       0.01015356
S        2.30931805       1.40039579       8.40695905      -0.00175859      -0.00106643      -0.00640206
Ta       0.90639324       0.54964680       3.29968012      -0.00103051      -0.00062491      -0.00375150
3
Lattice="3.43206988 0.12653397 6.18422885 1.69875352 2.98485359 6.18422885 0.20866043 0.12653397 7.06967121" Properties=species:S:1:pos:R:3:forces:R:3 e_per_atom_relaxed=-8.0937791 mp_id=mp-10014 energy_per_atom=-8.088963586666667 ef_per_atom_relaxed=-8.0937791 corrected_total_energy=-24.26689076 ef_per_atom=-1.3787379154166655 task_id=mp-10014 calc_id=0 ionic_step=14 energy=-23.26089076 stress="-0.0002971846697914318 -7.045427984315273e-06 -4.229561779909352e-05 -7.045427984315273e-06 -0.00028983885669741516 -2.564852680192099e-05 -4.229561779909352e-05 -2.564852680192099e-05 -0.00043954154670436196" pbc="T T T"
S        3.07904411       1.86716610      11.20910900       0.00063090       0.00038258       0.00229675
S        2.26165857       1.37149455       8.23345705      -0.00027369      -0.00016597      -0.00099637
Ta       0.89047490       0.53999374       3.24173019      -0.00035720      -0.00021661      -0.00130038
3
Lattice="3.42430491 0.12110676 6.15364161 1.69035147 2.98047695 6.15364161 0.1997107 0.12110676 7.03940941" Properties=species:S:1:pos:R:3:forces:R:3 e_per_atom_relaxed=-8.0937791 mp_id=mp-10014 energy_per_atom=-8.088909450000001 ef_per_atom_relaxed=-8.0937791 corrected_total_energy=-24.26672835 ef_per_atom=-1.3786837787499995 task_id=mp-10014 calc_id=0 ionic_step=11 energy=-23.26072835 stress="0.0003192029601234836 -2.6806083325916422e-05 -0.00016092426805682671 -2.6806083325916422e-05 0.00034715193866845874 -9.758623860204064e-05 -0.00016092426805682671 -9.758623860204064e-05 -0.0002224294596322698" pbc="T T T"
S        3.06652442       1.85957403      11.16353170      -0.00261847      -0.00158787      -0.00953242
S        2.24914224       1.36390451       8.18789197       0.00070476       0.00042738       0.00256565
Ta       0.88619973       0.53740123       3.22616663       0.00191371       0.00116049       0.00696677
3
Lattice="3.47052749 0.14849359 6.31983681 1.73600384 3.0088041 6.31983681 0.24487286 0.14849359 7.20589589" Properties=species:S:1:pos:R:3:forces:R:3 e_per_atom_relaxed=-8.0937791 mp_id=mp-10014 energy_per_atom=-8.088965830000001 ef_per_atom_relaxed=-8.0937791 corrected_total_energy=-24.26689749 ef_per_atom=-1.3787401587499997 task_id=mp-10014 calc_id=0 ionic_step=7 energy=-23.26089749 stress="0.0013251858830269608 2.1292952073514616e-05 0.00012782743009802383 2.1292952073514616e-05 0.0013029850847265589 7.75159544757227e-05 0.00012782743009802383 7.75159544757227e-05 0.001755422288334018" pbc="T T T"
S        3.13521578       1.90122923      11.41359922      -0.00192744      -0.00116882      -0.00701675
S        2.31700471       1.40505706       8.43494197       0.01542190       0.00935201       0.05614268
Ta       0.90956826       0.55157217       3.31123863      -0.01349446      -0.00818319      -0.04912593
3
Lattice="3.41175046 0.11455223 6.11135515 1.67873576 2.97237442 6.11135515 0.18890198 0.11455223 6.99664342" Properties=species:S:1:pos:R:3:forces:R:3 e_per_atom_relaxed=-8.0937791 mp_id=mp-10014 energy_per_atom=-8.08879007 ef_per_atom_relaxed=-8.0937791 corrected_total_energy=-24.26637021 ef_per_atom=-1.3785643987499996 task_id=mp-10014 calc_id=0 ionic_step=6 energy=-23.26037021 stress="-0.0006930683706054489 -2.0162003102922824e-05 -0.00012103801633503404 -2.0162003102922824e-05 -0.0006720467431751455 -7.339878042988855e-05 -0.00012103801633503404 -7.339878042988855e-05 -0.001100453256595167" pbc="T T T"
S        3.04902508       1.84896223      11.09982620      -0.00047811      -0.00028993      -0.00174052
S        2.23170731       1.35333178       8.12442096      -0.00305575      -0.00185304      -0.01112432
Ta       0.88031359       0.53383181       3.20473844       0.00353386       0.00214297       0.01286485
3
Lattice="3.40634174 0.11112572 6.0911917 1.67319703 2.96916228 6.0911917 0.18325151 0.11112572 6.97654637" Properties=species:S:1:pos:R:3:forces:R:3 e_per_atom_relaxed=-8.0937791 mp_id=mp-10014 energy_per_atom=-8.088729686666666 ef_per_atom_relaxed=-8.0937791 corrected_total_energy=-24.26618906 ef_per_atom=-1.3785040154166652 task_id=mp-10014 calc_id=0 ionic_step=5 energy=-23.26018906 stress="-0.0006174263418636447 -2.6939021228788615e-05 -0.00016172233237969863 -2.6939021228788615e-05 -0.000589338751884002 -9.807019273664339e-05 -0.00016172233237969863 -9.807019273664339e-05 -0.001161744838762286" pbc="T T T"
S        3.04062976       1.84387122      11.06926346       0.00056257       0.00034115       0.00204801
S        2.22343369       1.34831456       8.09430124      -0.00192591      -0.00116789      -0.00701118
Ta       0.87761275       0.53219399       3.19490615       0.00136334       0.00082674       0.00496317
3
Lattice="3.39173375 0.09736202 6.02217725 1.65423937 2.96257141 6.02217725 0.16055451 0.09736202 6.90975389" Properties=species:S:1:pos:R:3:forces:R:3 e_per_atom_relaxed=-8.0937791 mp_id=mp-10014 energy_per_atom=-8.086605423333333 ef_per_atom_relaxed=-8.0937791 corrected_total_energy=-24.25981627 ef_per_atom=-1.376379752083333 task_id=mp-10014 calc_id=1 ionic_step=14 energy=-23.25381627 stress="0.004042917301318294 -0.00011336370637421299 -0.000680553352136394 -0.00011336370637421299 0.004161114351219973 -0.00041269501215780073 -0.000680553352136394 -0.00041269501215780073 0.0017523382525692639" pbc="T T T"
S        3.01207360       1.82655446      10.96530615       0.00118141       0.00071642       0.00430087
S        2.19450943       1.33077458       7.98900392       0.03569094       0.02164338       0.12993112
Ta       0.86943472       0.52723475       3.16513443      -0.03687235      -0.02235980      -0.13423198
3
Lattice="3.38686683 0.09362269 6.0019158 1.64867372 2.95998431 6.0019158 0.1543882 0.09362269 6.88984938" Properties=species:S:1:pos:R:3:forces:R:3 e_per_atom_relaxed=-8.0937791 mp_id=mp-10014 energy_per_atom=-8.086198753333333 ef_per_atom_relaxed=-8.0937791 corrected_total_energy=-24.25859626 ef_per_atom=-1.3759730820833327 task_id=mp-10014 calc_id=1 ionic_step=13 energy=-23.25259626 stress="0.004813704225785692 -0.00011335584831422353 -0.0006805061600858931 -0.00011335584831422353 0.004931893086827397 -0.00041266639483845854 -0.0006805061600858931 -0.00041266639483845854 0.0025232840296854245" pbc="T T T"
S        3.00361049       1.82142233      10.93449662       0.00541431       0.00328330       0.01971052
S        2.18580856       1.32549827       7.95732881       0.04899724       0.02971246       0.17837204
Ta       0.86722780       0.52589645       3.15710027      -0.05441155      -0.03299576      -0.19808256
3
Lattice="3.34968504 0.07708505 5.88595772 1.61682106 2.93465869 5.88595772 0.12711686 0.07708505 6.77116899" Properties=species:S:1:pos:R:3:forces:R:3 e_per_atom_relaxed=-8.0937791 mp_id=mp-10014 energy_per_atom=-8.085354756666666 ef_per_atom_relaxed=-8.0937791 corrected_total_energy=-24.25606427 ef_per_atom=-1.3751290854166656 task_id=mp-10014 calc_id=1 ionic_step=12 energy=-23.25006427 stress="-0.001930540734301545 -0.00014246417469631324 -0.0008552514137397654 -0.00014246417469631324 -0.0017820024976861778 -0.0005186338317588813 -0.0008552514137397654 -0.0005186338317588813 -0.004809111461227484" pbc="T T T"
S        2.95414199       1.79142408      10.75440894       0.04360516       0.02644265       0.15874244
S        2.13864164       1.29689573       7.78561996       0.02250496       0.01364726       0.08192822
Ta       0.85147436       0.51634339       3.09975063      -0.06611012      -0.04008990      -0.24067066
3
Lattice="3.33109414 0.06881624 5.82797869 1.60089472 2.92199589 5.82797869 0.11348119 0.06881624 6.7118288" Properties=species:S:1:pos:R:3:forces:R:3 e_per_atom_relaxed=-8.0937791 mp_id=mp-10014 energy_per_atom=-8.084167386666666 ef_per_atom_relaxed=-8.0937791 corrected_total_energy=-24.25250216 ef_per_atom=-1.3739417154166653 task_id=mp-10014 calc_id=1 ionic_step=11 energy=-23.24650216 stress="-0.005685523457115222 -0.00017556063816456859 -0.0010539385596307412 -0.00017556063816456859 -0.005502477657923893 -0.0006391198989588952 -0.0010539385596307412 -0.0006391198989588952 -0.009232827372436466" pbc="T T T"
S        2.92934850       1.77638905      10.66414949       0.06389150       0.03874451       0.23259387
S        2.11512063       1.28263235       7.69999289       0.00822673       0.00498878       0.02994901
Ta       0.84359442       0.51156491       3.07106409      -0.07211823      -0.04373329      -0.26254288
3
Lattice="3.29530138 0.04846685 5.70205336 1.56630414 2.89966404 5.70205336 0.07992409 0.04846685 6.58528935" Properties=species:S:1:pos:R:3:forces:R:3 e_per_atom_relaxed=-8.0937791 mp_id=mp-10014 energy_per_atom=-8.082095023333332 ef_per_atom_relaxed=-8.0937791 corrected_total_energy=-24.24628507 ef_per_atom=-1.371869352083332 task_id=mp-10014 calc_id=1 ionic_step=7 energy=-23.24028507 stress="-0.004797605251636937 -8.443579705491606e-05 -0.0005068911875611361 -8.443579705491606e-05 -0.004709569476948393 -0.0003073843754842038 -0.0005068911875611361 -0.0003073843754842038 -0.0065036791791388505" pbc="T T T"
S        2.87967248       1.74626497      10.48330635       0.01174056       0.00711961       0.04274095
S        2.06215491       1.25051335       7.50717376       0.02006813       0.01216953       0.07305704
Ta       0.82493767       0.50025125       3.00314510      -0.03180869      -0.01928914      -0.11579799
3
Lattice="3.27679166 0.03673012 5.63301609 1.5473402 2.88867634 5.63301609 0.06056968 0.03673012 6.51648411" Properties=species:S:1:pos:R:3:forces:R:3 e_per_atom_relaxed=-8.0937791 mp_id=mp-10014 energy_per_atom=-8.079957143333333 ef_per_atom_relaxed=-8.0937791 corrected_total_energy=-24.23987143 ef_per_atom=-1.3697314720833327 task_id=mp-10014 calc_id=1 ionic_step=6 energy=-23.23387143 stress="-0.0024007197521578017 -2.8003984964901564e-05 -0.0001681155850754504 -2.8003984964901564e-05 -0.002371521797704664 -0.00010194713109622228 -0.0001681155850754504 -0.00010194713109622228 -0.0029665564072622374" pbc="T T T"
S        2.85328215       1.73026158      10.38723367      -0.03506135      -0.02126158      -0.12763911
S        2.03279864       1.23271138       7.40030369       0.03408747       0.02067101       0.12409376
Ta       0.81436591       0.49384042       2.96465915       0.00097388       0.00059057       0.00354535
3
Lattice="3.26979676 0.02941454 5.59762893 1.53761966 2.88585548 5.59762893 0.04850596 0.02941454 6.48248931" Properties=species:S:1:pos:R:3:forces:R:3 e_per_atom_relaxed=-8.0937791 mp_id=mp-10014 energy_per_atom=-8.078913373333334 ef_per_atom_relaxed=-8.0937791 corrected_total_energy=-24.23674012 ef_per_atom=-1.3686877020833326 task_id=mp-10014 calc_id=1 ionic_step=4 energy=-23.23074012 stress="-7.45669038288341e-05 -0.00013677659950535212 -0.0008211073441722761 -0.00013677659950535212 6.804126872452239e-05 -0.0004979284990450411 -0.0008211073441722761 -0.0004979284990450411 -0.002838216917514017" pbc="T T T"
S        2.83873488       1.72143995      10.33427505      -0.04390022      -0.02662157      -0.15981659
S        2.01877869       1.22420953       7.34926476       0.03696328       0.02241494       0.13456302
Ta       0.80934785       0.49079741       2.94639113       0.00693693       0.00420663       0.02525357
3
Lattice="3.26614141 0.01433513 5.54279917 1.5225584 2.88958493 5.54279917 0.02363931 0.01433513 6.43348611" Properties=species:S:1:pos:R:3:forces:R:3 e_per_atom_relaxed=-8.0937791 mp_id=mp-10014 energy_per_atom=-8.07686913 ef_per_atom_relaxed=-8.0937791 corrected_total_energy=-24.23060739 ef_per_atom=-1.366643458749999 task_id=mp-10014 calc_id=1 ionic_step=3 energy=-23.22460739 stress="0.007491766827808651 -0.0007318843345838443 -0.0043937019168866906 -0.0007318843345838443 0.008254855587267348 -0.0026643890159054303 -0.0043937019168866906 -0.0026643890159054303 -0.007296377988690722" pbc="T T T"
S        2.81337112       1.70605908      10.24193953      -0.01156598      -0.00701374      -0.04210540
S        1.99992108       1.21277407       7.28061458       0.02543511       0.01542413       0.09259526
Ta       0.80270755       0.48677066       2.92221745      -0.01386912      -0.00841039      -0.05048986
3
Lattice="3.40067442 0.04413029 5.86538459 1.6111698 2.99510699 5.86538459 0.07277291 0.04413029 6.77953" Properties=species:S:1:pos:R:3:forces:R:3 e_per_atom_relaxed=-8.0937791 mp_id=mp-10014 energy_per_atom=-7.9232038833333345 ef_per_atom_relaxed=-8.0937791 corrected_total_energy=-23.76961165 ef_per_atom=-1.212978212083333 task_id=mp-10014 calc_id=1 ionic_step=1 energy=-22.76361165 stress="0.07465553410726689 0.001522554934537714 0.009140313864202906 0.001522554934537714 0.07306806392015978 0.005542786540953126 0.009140313864202906 0.005542786540953126 0.105419634069847" pbc="T T T"
S        2.98609603       1.81080137      10.87073609      -0.61137400      -0.37074390      -2.22567705
S        2.10118823       1.27418358       7.64927267       0.58252725       0.35325091       2.12066189
Ta       0.84646392       0.51330500       3.08151039       0.02884675       0.01749298       0.10501517
3
Lattice="3.20141449 0.0 5.38759591 1.47992543 2.83881585 5.38759591 0.0 0.0 6.26699645" Properties=species:S:1:pos:R:3:forces:R:3 e_per_atom_relaxed=-8.0937791 mp_id=mp-10014 energy_per_atom=-8.030133556666668 ef_per_atom_relaxed=-8.0937791 corrected_total_energy=-24.09040067 ef_per_atom=-1.3199078854166661 task_id=mp-10014 calc_id=1 ionic_step=0 energy=-23.08440067 stress="-0.04662020142492395 -0.0021119024682250565 -0.012678328341763804 -0.0021119024682250565 -0.04441825643696223 -0.007688277309807067 -0.012678328341763804 -0.007688277309807067 -0.08929240791727823" pbc="T T T"
S        2.72922117       1.65502964       9.93559576       0.41535954       0.25187858       1.51209603
S        1.95211875       1.18378621       7.10659251      -0.36445908      -0.22101198      -1.32679538
Ta       0.78178377       0.47408225       2.84604544      -0.05090047      -0.03086660      -0.18530065
3
Lattice="-1.6781108 -2.90657382 0.0 1.6781108 -2.90657382 0.0 0.0 -1.93771588 6.07287398" Properties=species:S:1:pos:R:3:forces:R:3 e_per_atom_relaxed=-8.0937791 mp_id=mp-10014 energy_per_atom=-8.071782073333333 ef_per_atom_relaxed=-8.0937791 corrected_total_energy=-24.21534622 ef_per_atom=-1.3615564020833326 task_id=mp-1062998 calc_id=1 ionic_step=5 energy=-23.20934622 stress="0.00891663659582468 -0.0 -0.0 -0.0 0.008916640540458447 0.0 -0.0 0.0 -0.0015622676660642983" pbc="T T T"
Ta       0.00000000       0.00000002       0.00102929      -0.00000000      -0.00000000      -0.01868546
S        0.00000000      -5.81314764       4.50745486       0.00000000       0.00000000       0.28400533
S        0.00000000      -3.87543176       1.57046264      -0.00000000       0.00000000      -0.26531988
3
Lattice="-1.65413687 -2.86504972 0.0 1.65413687 -2.86504972 0.0 0.0 -1.91003314 6.11455273" Properties=species:S:1:pos:R:3:forces:R:3 e_per_atom_relaxed=-8.0937791 mp_id=mp-10014 energy_per_atom=-8.064760083333333 ef_per_atom_relaxed=-8.0937791 corrected_total_energy=-24.19428025 ef_per_atom=-1.3545344120833318 task_id=mp-1062998 calc_id=1 ionic_step=3 energy=-23.18828025 stress="-0.008067395955101432 -0.0 -0.0 -0.0 -0.008067399431622015 0.0 -0.0 0.0 0.014956979904022326" pbc="T T T"
Ta       0.00000000      -0.00000000      -0.00025736       0.00000000      -0.00000000       0.02628113
S        0.00000000      -5.73009942       4.51672147       0.00000000       0.00000000       0.57172307
S        0.00000000      -3.82006631       1.60420317      -0.00000000      -0.00000000      -0.59800419
3
Lattice="-1.583082 -2.741979 0.0 1.583082 -2.741979 0.0 0.0 -1.827986 5.814172" Properties=species:S:1:pos:R:3:forces:R:3 e_per_atom_relaxed=-8.0937791 mp_id=mp-10014 energy_per_atom=-7.779181146666668 ef_per_atom_relaxed=-8.0937791 corrected_total_energy=-23.33754344 ef_per_atom=-1.0689554754166661 task_id=mp-1062998 calc_id=1 ionic_step=0 energy=-22.33154344 stress="-0.19785509543368315 -0.0 -0.0 -0.0 -0.19785517386448684 0.0 -0.0 0.0 -0.22774088163751088" pbc="T T T"
Ta       0.00000000       0.00000000       0.00000000       0.00000000       0.00000000      -0.01306122
S        0.00000000      -5.48395800       4.36062900       0.00000000       0.00000000      -3.51132852
S        0.00000000      -3.65597200       1.45935717       0.00000000      -0.00000000       3.52438974
3
Lattice="6.889292 -1.671874 0.0 6.889292 1.671874 0.0 6.483567 0.0 2.867206" Properties=species:S:1:pos:R:3:forces:R:3:magmoms:R:1 bandgap=0.0 e_per_atom_relaxed=-8.0937791 mp_id=mp-10014 energy_per_atom=-8.0937791 ef_per_atom_relaxed=-8.0937791 corrected_total_energy=-24.2813373 ef_per_atom=-1.3835534287499993 task_id=mp-1782631 calc_id=0 ionic_step=0 energy=-23.2753373 stress="-0.0006433166397630661 0.0 -0.00016866052499572214 0.0 0.0005485850302578576 -0.0 -0.00016866052499572214 -0.0 0.0005247183232396847" pbc="T T T"
Ta      16.88313339       0.00000000       2.38905639      -0.00366058      -0.00000000      -0.00051799       0.11800000
S        8.58160855       0.00000000       1.21434489      -0.00640543      -0.00000000      -0.00090640       0.00500000
S       11.67578084       0.00000000       1.65218732       0.01006601       0.00000000       0.00142440       0.00500000
13
Lattice="4.52200428 -0.0 2.6107802 1.50733509 4.26338685 2.6107802 0.0 0.0 5.22156041" Properties=species:S:1:pos:R:3:forces:R:3:magmoms:R:1 bandgap=0.0 e_per_atom_relaxed=-7.1248659023076915 mp_id=mp-1001600 energy_per_atom=-7.1233991823076925 ef_per_atom_relaxed=-7.1248659023076915 corrected_total_energy=-92.60418937 ef_per_atom=-0.19187053076923086 task_id=mp-1001600 calc_id=0 ionic_step=0 energy=-92.60418937 stress="0.00019492471425782023 1.2483018251766516e-11 -0.0 1.2483018251766516e-11 0.00019492474546536586 0.0 -0.0 0.0 0.00019492468929178372" pbc="T T T"
Hf       0.00000000       0.00000000       0.00000000      -0.00000000       0.00000000       0.00000000       0.00000000
B        4.54894083       2.13169342       6.10737220       0.01292055      -0.00000000       0.00745968       0.00000000
B        3.01466968       2.13169342       6.99318400       0.00000000      -0.00000000       0.01491937       0.00000000
B        4.03751701       0.68516860       5.22156040       0.00861370      -0.01218161       0.00000000      -0.00000000
B        3.52609351       3.57821825       4.33574860       0.00430685       0.01218161      -0.00745968      -0.00000000
B        2.50324586       0.68516860       6.10737221      -0.00430685      -0.01218161       0.00745968       0.00000000
B        3.52609351       3.57821825       6.10737220       0.00430685       0.01218161       0.00745968      -0.00000000
B        4.54894083       2.13169342       4.33574860       0.01292055      -0.00000000      -0.00745968       0.00000000
B        1.99182236       3.57821825       5.22156040      -0.00861370       0.01218161      -0.00000000       0.00000000
B        2.50324586       0.68516860       4.33574861      -0.00430685      -0.01218161      -0.00745968      -0.00000000
B        1.48039854       2.13169342       6.10737221      -0.01292055       0.00000000       0.00745968      -0.00000000
B        3.01466968       2.13169342       3.44993681       0.00000000       0.00000000      -0.01491937       0.00000000
B        1.48039854       2.13169342       4.33574861      -0.01292055       0.00000000      -0.00745968       0.00000000
13
Lattice="4.49762664 -0.0 2.59670577 1.4992092 4.24040338 2.59670577 0.0 0.0 5.19341154" Properties=species:S:1:pos:R:3:forces:R:3 e_per_atom_relaxed=-7.1248659023076915 mp_id=mp-1001600 energy_per_atom=-7.122005739230769 ef_per_atom_relaxed=-7.1248659023076915 corrected_total_energy=-92.58607461 ef_per_atom=-0.19047708769230753 task_id=mp-1001600 calc_id=1 ionic_step=1 energy=-92.58607461 stress="-0.02508781433218627 -1.8911772651426272e-09 -0.0 -1.8911772651426272e-09 -0.025087818164472867 0.0 -0.0 0.0 -0.0250878108681487" pbc="T T T"
Hf       0.00000000       0.00000000       0.00000000      -0.00000000      -0.00000000      -0.00000000
B        4.52433059       2.12020169       6.07439757       0.02610310      -0.00000000       0.01507063
B        2.99841792       2.12020169       6.95538360      -0.00000000       0.00000000       0.03014126
B        4.01569292       0.68155732       5.19341154       0.01740206      -0.02461024       0.00000000
B        3.50705558       3.55884606       4.31242551       0.00870103       0.02461024      -0.01507063
B        2.48978026       0.68155732       6.07439757      -0.00870103      -0.02461024       0.01507063
B        3.50705558       3.55884606       6.07439757       0.00870103       0.02461024       0.01507063
B        4.52433059       2.12020169       4.31242551       0.02610310      -0.00000000      -0.01507063
B        1.98114292       3.55884606       5.19341154      -0.01740206       0.02461024       0.00000000
B        2.48978026       0.68155732       4.31242551      -0.00870103      -0.02461024      -0.01507063
B        1.47250525       2.12020169       6.07439757      -0.02610310       0.00000000       0.01507063
B        2.99841792       2.12020169       3.43143948      -0.00000000      -0.00000000      -0.03014126
B        1.47250525       2.12020169       4.31242551      -0.02610310       0.00000000      -0.01507063
13
Lattice="4.561706 0.0 2.633702 1.520569 4.300818 2.633702 0.0 0.0 5.267404" Properties=species:S:1:pos:R:3:forces:R:3 e_per_atom_relaxed=-7.1248659023076915 mp_id=mp-1001600 energy_per_atom=-7.119669976153846 ef_per_atom_relaxed=-7.1248659023076915 corrected_total_energy=-92.55570969 ef_per_atom=-0.18814132461538471 task_id=mp-1001600 calc_id=1 ionic_step=0 energy=-92.55570969 stress="0.03662927004932614 2.8398866522768824e-09 -0.0 2.8398866522768824e-09 0.036629275810239066 0.0 -0.0 0.0 0.03662926485014904" pbc="T T T"
Hf       0.00000000       0.00000000       0.00000000       0.00000000       0.00000000      -0.00000000
B        4.58902014       2.15040900       6.16107440      -0.00476237       0.00000000      -0.00274956
B        3.04113750       2.15040900       7.05474479       0.00000000       0.00000000      -0.00549911
B        4.07305915       0.69105114       5.26740400      -0.00317491       0.00449001       0.00000000
B        3.55709849       3.60976686       4.37373360      -0.00158746      -0.00449001       0.00274956
B        2.52517651       0.69105114       6.16107440       0.00158746       0.00449001      -0.00274956
B        3.55709849       3.60976686       6.16107440      -0.00158746      -0.00449001      -0.00274956
B        4.58902014       2.15040900       4.37373360      -0.00476237      -0.00000000       0.00274956
B        2.00921585       3.60976686       5.26740400       0.00317491      -0.00449001      -0.00000000
B        2.52517651       0.69105114       4.37373360       0.00158746       0.00449001       0.00274956
B        1.49325486       2.15040900       6.16107440       0.00476237       0.00000000      -0.00274956
B        3.04113750       2.15040900       3.48006321       0.00000000      -0.00000000       0.00549911
B        1.49325486       2.15040900       4.37373360       0.00476237      -0.00000000       0.00274956
13
Lattice="0.0 3.692201 3.692201 3.692201 0.0 3.692201 3.692201 3.692201 0.0" Properties=species:S:1:pos:R:3:forces:R:3:magmoms:R:1 bandgap=0.0 e_per_atom_relaxed=-7.1248659023076915 mp_id=mp-1001600 energy_per_atom=-7.1248659023076915 ef_per_atom_relaxed=-7.1248659023076915 corrected_total_energy=-92.62325673 ef_per_atom=-0.1933372507692304 task_id=mp-1429106 calc_id=0 ionic_step=0 energy=-92.62325673 stress="-0.0002005407992032535 -0.0 0.0 -0.0 -0.0002005407992032535 -0.0 0.0 -0.0 -0.0002005407992032535" pbc="T T T"
Hf       0.00000000       0.00000000       0.00000000      -0.00000000       0.00000000      -0.00000000       0.00000000
B        4.94492788       3.69220100       4.94492788       0.02059462      -0.00000000       0.02059462      -0.00000000
B        3.69220100       4.94492788       4.94492788      -0.00000000       0.02059462       0.02059462      -0.00000000
B        3.69220100       2.43947412       4.94492788       0.00000000      -0.02059462       0.02059462      -0.00000000
B        4.94492788       3.69220100       2.43947412       0.02059462      -0.00000000      -0.02059462      -0.00000000
B        2.43947412       3.69220100       4.94492788      -0.02059462      -0.00000000       0.02059462      -0.00000000
B        4.94492788       4.94492788       3.69220100       0.02059462       0.02059462       0.00000000      -0.00000000
B        4.94492788       2.43947412       3.69220100       0.02059462      -0.02059462      -0.00000000      -0.00000000
B        3.69220100       4.94492788       2.43947412      -0.00000000       0.02059462      -0.02059462      -0.00000000
B        2.43947412       2.43947412       3.69220100      -0.02059462      -0.02059462       0.00000000      -0.00000000
B        2.43947412       4.94492788       3.69220100      -0.02059462       0.02059462       0.00000000      -0.00000000
B        3.69220100       2.43947412       2.43947412      -0.00000000      -0.02059462      -0.02059462      -0.00000000
B        2.43947412       3.69220100       2.43947412      -0.02059462      -0.00000000      -0.02059462      -0.00000000
13
Lattice="4.49260479 -1e-08 2.5938064 1.49753525 4.23566873 2.5938064 0.0 -0.0 5.18761281" Properties=species:S:1:pos:R:3:forces:R:3:magmoms:R:1 bandgap=0.0 e_per_atom_relaxed=-6.95684134 mp_id=mp-1001602 energy_per_atom=-6.951067241538461 ef_per_atom_relaxed=-6.95684134 corrected_total_energy=-90.36387414 ef_per_atom=0.21130307923076957 task_id=mp-1001602 calc_id=0 ionic_step=2 energy=-90.36387414 stress="0.0010782375348464455 8.113961863648236e-11 -0.0 8.113961863648236e-11 0.0010782376971256826 -0.0 -0.0 -0.0 0.0010782373850502262" pbc="T T T"
B        4.52519133       2.11783436       6.07102869       0.01016777      -0.00000000       0.00587036       0.00000000
B        2.99507002       2.11783436       6.95444458      -0.00000000      -0.00000000       0.01174073       0.00000000
B        4.01515078       0.67522205       5.18761281       0.00677851      -0.00958626      -0.00000000       0.00000000
B        3.50511056       3.56044667       4.30419692       0.00338926       0.00958626      -0.00587036       0.00000000
B        2.48502948       0.67522205       6.07102869      -0.00338926      -0.00958626       0.00587036       0.00000000
B        3.50511056       3.56044667       6.07102869       0.00338926       0.00958626       0.00587036       0.00000000
B        4.52519133       2.11783436       4.30419692       0.01016777      -0.00000000      -0.00587036       0.00000000
B        1.97498926       3.56044667       5.18761281      -0.00677851       0.00958626      -0.00000000       0.00000000
B        2.48502948       0.67522205       4.30419692      -0.00338926      -0.00958626      -0.00587036       0.00000000
B        1.46494871       2.11783436       6.07102869      -0.01016777       0.00000000       0.00587036       0.00000000
B        2.99507002       2.11783436       3.42078103       0.00000000       0.00000000      -0.01174073       0.00000000
B        1.46494871       2.11783436       4.30419692      -0.01016777       0.00000000      -0.00587036       0.00000000
W        0.00000000       0.00000000       0.00000000       0.00000000       0.00000000       0.00000000       0.00500000
13
Lattice="4.48869682 -1e-08 2.59155014 1.4962326 4.23198427 2.59155014 0.0 -0.0 5.18310028" Properties=species:S:1:pos:R:3:forces:R:3 e_per_atom_relaxed=-6.95684134 mp_id=mp-1001602 energy_per_atom=-6.950891773846154 ef_per_atom_relaxed=-6.95684134 corrected_total_energy=-90.36159306 ef_per_atom=0.2114785469230764 task_id=mp-1001602 calc_id=0 ionic_step=1 energy=-90.36159306 stress="-0.00251623780902945 -1.872452737764977e-10 -0.0 -1.872452737764977e-10 -0.002516238189761507 -0.0 -0.0 -0.0 -0.002516237465746448" pbc="T T T"
B        4.51904285       2.11599213       6.06447052       0.12397217      -0.00000000       0.07157536
B        2.99246471       2.11599213       6.94584076       0.00000000      -0.00000000       0.14315072
B        4.01018336       0.67672035       5.18310028       0.08264810      -0.11688209       0.00000000
B        3.50132420       3.55526391       4.30173004       0.04132407       0.11688209      -0.07157536
B        2.48360522       0.67672035       6.06447052      -0.04132407      -0.11688209       0.07157536
B        3.50132420       3.55526391       6.06447052       0.04132407       0.11688209       0.07157536
B        4.51904285       2.11599213       4.30173004       0.12397217      -0.00000000      -0.07157536
B        1.97474606       3.55526391       5.18310028      -0.08264810       0.11688209      -0.00000000
B        2.48360522       0.67672035       4.30173004      -0.04132407      -0.11688209      -0.07157536
B        1.46588657       2.11599213       6.06447052      -0.12397217       0.00000000       0.07157536
B        2.99246471       2.11599213       3.42035980       0.00000000       0.00000000      -0.14315072
B        1.46588657       2.11599213       4.30173004      -0.12397217       0.00000000      -0.07157536
W        0.00000000       0.00000000       0.00000000      -0.00000000      -0.00000000       0.00000000
13
Lattice="4.4957224 -1e-08 2.59560636 1.49857446 4.23860805 2.59560636 0.0 0.0 5.19121272" Properties=species:S:1:pos:R:3:forces:R:3 e_per_atom_relaxed=-6.95684134 mp_id=mp-1001602 energy_per_atom=-6.950926753076923 ef_per_atom_relaxed=-6.95684134 corrected_total_energy=-90.36204779 ef_per_atom=0.2114435676923071 task_id=mp-1001602 calc_id=0 ionic_step=0 energy=-90.36204779 stress="0.004257001089302126 3.1831696542004616e-10 0.0 3.1831696542004616e-10 0.004257001738419076 -0.0 0.0 -0.0 0.004257000502600269" pbc="T T T"
B        4.53009284       2.11930402       6.07625853      -0.08243521       0.00000000      -0.04759399
B        2.99714843       2.11930402       6.96130433      -0.00000000      -0.00000000      -0.09518797
B        4.01911126       0.67403006       5.19121272      -0.05495680       0.07772067      -0.00000000
B        3.50813001       3.56457798       4.30616691      -0.02747841      -0.07772067       0.04759399
B        2.48616685       0.67403006       6.07625853       0.02747841       0.07772067      -0.04759399
B        3.50813001       3.56457798       6.07625853      -0.02747841      -0.07772067      -0.04759399
B        4.53009284       2.11930402       4.30616691      -0.08243521       0.00000000       0.04759399
B        1.97518560       3.56457798       5.19121272       0.05495680      -0.07772067      -0.00000000
B        2.48616685       0.67403006       4.30616691       0.02747841       0.07772067       0.04759399
B        1.46420402       2.11930402       6.07625853       0.08243521      -0.00000000      -0.04759399
B        2.99714843       2.11930402       3.42112111       0.00000000       0.00000000       0.09518797
B        1.46420402       2.11930402       4.30616691       0.08243521      -0.00000000       0.04759399
W        0.00000000       0.00000000       0.00000000       0.00000000       0.00000000       0.00000000
13
Lattice="4.45376283 -1e-08 2.57138099 1.48458793 4.19904818 2.57138099 -0.0 0.0 5.14276199" Properties=species:S:1:pos:R:3:forces:R:3 e_per_atom_relaxed=-6.95684134 mp_id=mp-1001602 energy_per_atom=-6.946146195384615 ef_per_atom_relaxed=-6.95684134 corrected_total_energy=-90.29990054 ef_per_atom=0.21622412538461552 task_id=mp-1001602 calc_id=1 ionic_step=1 energy=-90.29990054 stress="-0.038509920347727995 -2.8398866522768824e-09 0.0 -2.8398866522768824e-09 -0.03850992611488243 -0.0 0.0 -0.0 -0.038509915142309385" pbc="T T T"
B        4.49269568       2.09952408       6.02236678      -0.36299737       0.00000000      -0.20957662
B        2.96917538       2.09952409       6.90197157       0.00000000       0.00000000      -0.41915323
B        3.98485547       0.66313526       5.14276198      -0.24199822       0.34223723      -0.00000000
B        3.47701559       3.53591290       4.26315719      -0.12099915      -0.34223723       0.20957662
B        2.46133517       0.66313527       6.02236678       0.12099915       0.34223723      -0.20957662
B        3.47701559       3.53591290       6.02236678      -0.12099915      -0.34223723      -0.20957662
B        4.49269568       2.09952408       4.26315719      -0.36299737       0.00000000       0.20957662
B        1.95349529       3.53591291       5.14276198       0.24199822      -0.34223723      -0.00000000
B        2.46133517       0.66313527       4.26315719       0.12099915       0.34223723       0.20957662
B        1.44565508       2.09952409       6.02236678       0.36299737      -0.00000000      -0.20957662
B        2.96917538       2.09952409       3.38355240      -0.00000000       0.00000000       0.41915323
B        1.44565508       2.09952409       4.26315719       0.36299737      -0.00000000       0.20957662
W        0.00000000       0.00000000       0.00000000      -0.00000000       0.00000000      -0.00000000
13
Lattice="4.561706 0.0 2.633702 1.520569 4.300818 2.633702 0.0 0.0 5.267404" Properties=species:S:1:pos:R:3:forces:R:3 e_per_atom_relaxed=-6.95684134 mp_id=mp-1001602 energy_per_atom=-6.9391553553846155 ef_per_atom_relaxed=-6.95684134 corrected_total_energy=-90.20901962 ef_per_atom=0.2232149653846147 task_id=mp-1001602 calc_id=1 ionic_step=0 energy=-90.20901962 stress="0.06170285265468281 4.780995990426575e-09 -0.0 4.780995990426575e-09 0.061702862360229496 -0.0 -0.0 -0.0 0.06170284389160399" pbc="T T T"
B        4.58902014       2.15040900       6.16107440       0.26039836      -0.00000000       0.15034105
B        3.04113750       2.15040900       7.05474479       0.00000000       0.00000000       0.30068211
B        4.07305915       0.69105114       5.26740400       0.17359889      -0.24550595       0.00000000
B        3.55709849       3.60976686       4.37373360       0.08679947       0.24550595      -0.15034105
B        2.52517651       0.69105114       6.16107440      -0.08679947      -0.24550595       0.15034105
B        3.55709849       3.60976686       6.16107440       0.08679947       0.24550595       0.15034105
B        4.58902014       2.15040900       4.37373360       0.26039836       0.00000000      -0.15034105
B        2.00921585       3.60976686       5.26740400      -0.17359889       0.24550595       0.00000000
B        2.52517651       0.69105114       4.37373360      -0.08679947      -0.24550595      -0.15034105
B        1.49325486       2.15040900       6.16107440      -0.26039836      -0.00000000       0.15034105
B        3.04113750       2.15040900       3.48006321      -0.00000000       0.00000000      -0.30068211
B        1.49325486       2.15040900       4.37373360      -0.26039836       0.00000000      -0.15034105
W        0.00000000       0.00000000       0.00000000       0.00000000       0.00000000      -0.00000000
13
Lattice="0.0 3.668196 3.668196 3.668196 0.0 3.668196 3.668196 3.668196 0.0" Properties=species:S:1:pos:R:3:forces:R:3:magmoms:R:1 bandgap=0.0 e_per_atom_relaxed=-6.95684134 mp_id=mp-1001602 energy_per_atom=-6.95684134 ef_per_atom_relaxed=-6.95684134 corrected_total_energy=-90.43893742 ef_per_atom=0.20552898076923043 task_id=mp-1400968 calc_id=0 ionic_step=0 energy=-90.43893742 stress="0.0001940100835105133 0.0 -0.0 0.0 0.0001940100835105133 0.0 -0.0 0.0 0.0001940100835105133" pbc="T T T"
B        4.91753587       3.66819600       4.91753587      -0.02212284       0.00000000      -0.02212284      -0.00000000
B        3.66819600       4.91753587       4.91753587      -0.00000000      -0.02212284      -0.02212284       0.00000000
B        3.66819600       2.41885613       4.91753587       0.00000000       0.02212284      -0.02212284       0.00000000
B        4.91753587       3.66819600       2.41885613      -0.02212284       0.00000000       0.02212284      -0.00000000
B        2.41885613       3.66819600       4.91753587       0.02212284       0.00000000      -0.02212284      -0.00000000
B        4.91753587       4.91753587       3.66819600      -0.02212284      -0.02212284      -0.00000000      -0.00000000
B        4.91753587       2.41885613       3.66819600      -0.02212284       0.02212284      -0.00000000      -0.00000000
B        3.66819600       4.91753587       2.41885613       0.00000000      -0.02212284       0.02212284       0.00000000
B        2.41885613       2.41885613       3.66819600       0.02212284       0.02212284      -0.00000000      -0.00000000
B        2.41885613       4.91753587       3.66819600       0.02212284      -0.02212284      -0.00000000      -0.00000000
B        3.66819600       2.41885613       2.41885613      -0.00000000       0.02212284       0.02212284       0.00000000
B        2.41885613       3.66819600       2.41885613       0.02212284       0.00000000       0.02212284      -0.00000000
W        0.00000000       0.00000000       0.00000000       0.00000000       0.00000000      -0.00000000       0.00000000
4
Lattice="-3.4578303 0.0 0.0 0.0 -2.2453125 -2.97171196 0.0 -2.2453125 2.97171196" Properties=species:S:1:pos:R:3:forces:R:3:magmoms:R:1 bandgap=0.0 e_per_atom_relaxed=-7.53354357 mp_id=mp-1001603 energy_per_atom=-7.530877635 ef_per_atom_relaxed=-7.53354357 corrected_total_energy=-30.12351054 ef_per_atom=-0.34229964500000065 task_id=mp-1001603 calc_id=0 ionic_step=17 energy=-30.12351054 stress="0.0012477318755293124 -0.0 -0.0 -0.0 9.499556292614204e-05 -0.0 -0.0 -0.0 0.0016390151222458783" pbc="T T T"
Lu       0.00000000      -2.24531250      -2.96545680       0.00000000       0.00000000       0.03202306       0.00000000
Ni      -1.72891515      -2.24531250       0.66762279       0.00000000       0.00000000      -0.04200048       0.00000000
C       -1.72891515      -2.93411458      -1.18387688       0.00000000       0.00403364       0.00498871      -0.00000000
C       -1.72891515      -1.55651042      -1.18387688       0.00000000      -0.00403364       0.00498871      -0.00000000
4
Lattice="-3.46079444 0.0 0.0 0.0 -2.24689148 -2.97425158 0.0 -2.24689148 2.97425158" Properties=species:S:1:pos:R:3:forces:R:3 e_per_atom_relaxed=-7.53354357 mp_id=mp-1001603 energy_per_atom=-7.5307517575 ef_per_atom_relaxed=-7.53354357 corrected_total_energy=-30.12300703 ef_per_atom=-0.3421737675000003 task_id=mp-1001603 calc_id=0 ionic_step=0 energy=-30.12300703 stress="0.003498406746942341 -0.0 -0.0 -0.0 0.005056542721210579 -0.0 -0.0 -0.0 0.003996576124549078" pbc="T T T"
Lu       0.00000000      -2.24689148      -2.96889989       0.00000000       0.00000000       0.03332064
Ni      -1.73039722      -2.24689148       0.66550551       0.00000000       0.00000000       0.04379046
C       -1.73039722      -2.93705300      -1.18309030       0.00000000       0.05002484      -0.03855555
C       -1.73039722      -1.55672996      -1.18309030       0.00000000      -0.05002484      -0.03855555
4
Lattice="-3.45686044 0.0 0.0 0.0 -2.24655361 -2.96688092 0.0 -2.24655361 2.96688092" Properties=species:S:1:pos:R:3:forces:R:3 e_per_atom_relaxed=-7.53354357 mp_id=mp-1001603 energy_per_atom=-7.5301602075 ef_per_atom_relaxed=-7.53354357 corrected_total_energy=-30.12064083 ef_per_atom=-0.34158221750000006 task_id=mp-1001603 calc_id=1 ionic_step=5 energy=-30.12064083 stress="-0.0016114497655763075 -0.0 -0.0 -0.0 0.006437276225420254 -0.0 -0.0 -0.0 -0.0037920117926614053" pbc="T T T"
Lu       0.00000000       0.00000000       0.00728476       0.00000000       0.00000000       0.01617945
Ni      -1.72843022      -2.24655361       0.66206375       0.00000000       0.00000000       0.07248555
C       -1.72843022      -2.94134875      -1.18023532       0.00000000       0.37561057      -0.04433250
C       -1.72843022      -1.55175847      -1.18023532       0.00000000      -0.37561057      -0.04433250
4
Lattice="-3.46440272 0.0 0.0 0.0 -2.24720136 -2.98101199 0.0 -2.24720136 2.98101199" Properties=species:S:1:pos:R:3:forces:R:3 e_per_atom_relaxed=-7.53354357 mp_id=mp-1001603 energy_per_atom=-7.5304307275 ef_per_atom_relaxed=-7.53354357 corrected_total_energy=-30.12172291 ef_per_atom=-0.3418527375 task_id=mp-1001603 calc_id=1 ionic_step=4 energy=-30.12172291 stress="0.005222194414385003 -0.0 -0.0 -0.0 0.0007723953488861196 -0.0 -0.0 -0.0 0.008326296331386339" pbc="T T T"
Lu       0.00000000       0.00000000       0.00358795       0.00000000       0.00000000       0.08433379
Ni      -1.73220136      -2.24720136       0.66865369       0.00000000       0.00000000      -0.03589950
C       -1.73220136      -2.93311423      -1.18570926       0.00000000      -0.24407069      -0.02421714
C       -1.73220136      -1.56128849      -1.18570926       0.00000000       0.24407069      -0.02421714
4
Lattice="-3.46568471 0.0 0.0 0.0 -2.24756796 -2.97057195 0.0 -2.24756796 2.97057195" Properties=species:S:1:pos:R:3:forces:R:3 e_per_atom_relaxed=-7.53354357 mp_id=mp-1001603 energy_per_atom=-7.529953255 ef_per_atom_relaxed=-7.53354357 corrected_total_energy=-30.11981302 ef_per_atom=-0.34137526499999993 task_id=mp-1001603 calc_id=1 ionic_step=3 energy=-30.11981302 stress="-0.002142904262506138 -0.0 -0.0 -0.0 -0.008148512448946602 -0.0 -0.0 -0.0 -0.007713202046244714" pbc="T T T"
Lu       0.00000000       0.00000000       0.00531364       0.00000000       0.00000000      -0.04385704
Ni      -1.73284236      -2.24756796       0.65963665       0.00000000       0.00000000       0.48475730
C       -1.73284236      -2.93310977      -1.17908815       0.00000000      -0.37260914      -0.22045013
C       -1.73284236      -1.56202615      -1.17908815       0.00000000       0.37260914      -0.22045013
4
Lattice="-3.4626881 0.0 0.0 0.0 -2.24671105 -2.9949753 0.0 -2.24671105 2.9949753" Properties=species:S:1:pos:R:3:forces:R:3 e_per_atom_relaxed=-7.53354357 mp_id=mp-1001603 energy_per_atom=-7.5296742975 ef_per_atom_relaxed=-7.53354357 corrected_total_energy=-30.11869719 ef_per_atom=-0.3410963075 task_id=mp-1001603 calc_id=1 ionic_step=2 energy=-30.11869719 stress="0.002222115148717067 -0.0 -0.0 -0.0 0.0016716093439577923 -0.0 -0.0 -0.0 0.01793893926354315" pbc="T T T"
Lu       0.00000000       0.00000000       0.00129425       0.00000000       0.00000000       0.08496689
Ni      -1.73134405      -2.24671105       0.68065893       0.00000000       0.00000000      -0.29338604
C       -1.73134405      -2.93312041      -1.19454452       0.00000000      -0.07426245       0.10420958
C       -1.73134405      -1.56030169      -1.19454452       0.00000000       0.07426245       0.10420958
4
Lattice="-3.50130723 0.0 0.0 0.0 -2.26209877 -3.00358528 0.0 -2.26209877 3.00358528" Properties=species:S:1:pos:R:3:forces:R:3 e_per_atom_relaxed=-7.53354357 mp_id=mp-1001603 energy_per_atom=-7.5119727375 ef_per_atom_relaxed=-7.53354357 corrected_total_energy=-30.04789095 ef_per_atom=-0.3233947475000001 task_id=mp-1001603 calc_id=1 ionic_step=1 energy=-30.04789095 stress="0.027213452920208783 -0.0 -0.0 -0.0 -0.0009993709490034271 -0.0 -0.0 -0.0 0.028675674206917006" pbc="T T T"
Lu       0.00000000       0.00000000       0.00446903       0.00000000       0.00000000      -0.11685821
Ni      -1.75065362      -2.26209877       0.66256004       0.00000000       0.00000000       0.91484598
C       -1.75065362      -2.92890251      -1.18953637       0.00000000      -2.09152371      -0.39899389
C       -1.75065362      -1.59529503      -1.18953637       0.00000000       2.09152371      -0.39899389
4
Lattice="-3.4471 0.0 0.0 0.0 -2.2405 -2.9915 0.0 -2.2405 2.9915" Properties=species:S:1:pos:R:3:forces:R:3 e_per_atom_relaxed=-7.53354357 mp_id=mp-1001603 energy_per_atom=-7.52753161 ef_per_atom_relaxed=-7.53354357 corrected_total_energy=-30.11012644 ef_per_atom=-0.33895361999999984 task_id=mp-1001603 calc_id=1 ionic_step=0 energy=-30.11012644 stress="-0.02821723498088882 -0.0 -0.0 -0.0 -0.01729797189660752 -0.0 -0.0 -0.0 -0.0072490115691494685" pbc="T T T"
Lu       0.00000000       0.00000000       0.00000000       0.00000000       0.00000000       0.09226382
Ni      -1.72355000      -2.24050000       0.68804500       0.00000000       0.00000000      -0.58352568
C       -1.72355000      -2.93505500      -1.19660000       0.00000000       0.70721600       0.24563093
C       -1.72355000      -1.54594500      -1.19660000       0.00000000      -0.70721600       0.24563093
4
Lattice="-3.46805517 0.0 0.0 0.0 -2.24867847 -2.97956241 0.0 -2.24867847 2.97956241" Properties=species:S:1:pos:R:3:forces:R:3:magmoms:R:1 bandgap=0.0 e_per_atom_relaxed=-7.53354357 mp_id=mp-1001603 energy_per_atom=-7.531959695 ef_per_atom_relaxed=-7.53354357 corrected_total_energy=-30.12783878 ef_per_atom=-0.34338170500000054 task_id=mp-1066516 calc_id=0 ionic_step=2 energy=-30.12783878 stress="0.004628587344070175 -0.0 -0.0 -0.0 0.004945718915835524 -0.0 -0.0 -0.0 0.006950575776370735" pbc="T T T"
Lu       0.00000000      -2.24867847      -2.97366532       0.00000000       0.00000000      -0.02258114      -0.00000000
Ni      -1.73402758      -2.24867847       0.66917295       0.00000000       0.00000000       0.13071937      -0.00000000
C       -1.73402758      -2.93731035      -1.18671031       0.00000000      -0.01145334      -0.05406912       0.00000000
C       -1.73402758      -1.56004659      -1.18671031       0.00000000       0.01145334      -0.05406912       0.00000000
4
Lattice="-3.46010563 0.0 0.0 0.0 -2.24834087 -2.96500696 0.0 -2.24834087 2.96500696" Properties=species:S:1:pos:R:3:forces:R:3 e_per_atom_relaxed=-7.53354357 mp_id=mp-1001603 energy_per_atom=-7.5312812525 ef_per_atom_relaxed=-7.53354357 corrected_total_energy=-30.12512501 ef_per_atom=-0.3427032625000006 task_id=mp-1066516 calc_id=1 ionic_step=5 energy=-30.12512501 stress="-0.0011382104172069567 -0.0 -0.0 -0.0 0.01018514002647966 -0.0 -0.0 -0.0 -0.007780567396979957" pbc="T T T"
Lu       0.00000000       0.00000000       0.00668639       0.00000000       0.00000000      -0.00012867
Ni      -1.73005282      -2.24834087       0.65813388       0.00000000       0.00000000       0.26218672
C       -1.73005282      -2.94416905      -1.17743712       0.00000000       0.44670972      -0.13102902
C       -1.73005282      -1.55251269      -1.17743712       0.00000000      -0.44670972      -0.13102902
4
Lattice="-3.46710775 0.0 0.0 0.0 -2.24546506 -2.98607761 0.0 -2.24546506 2.98607761" Properties=species:S:1:pos:R:3:forces:R:3 e_per_atom_relaxed=-7.53354357 mp_id=mp-1001603 energy_per_atom=-7.5315540125 ef_per_atom_relaxed=-7.53354357 corrected_total_energy=-30.12621605 ef_per_atom=-0.34297602250000025 task_id=mp-1066516 calc_id=1 ionic_step=4 energy=-30.12621605 stress="0.004261723689733172 -0.0 -0.0 -0.0 -0.005235864636329114 -0.0 -0.0 -0.0 0.008539547077630157" pbc="T T T"
Lu       0.00000000       0.00000000       0.00270563       0.00000000      -0.00000000       0.07714082
Ni      -1.73355387      -2.24546506       0.67259678       0.00000000      -0.00000000      -0.11635224
C       -1.73355387      -2.92860366      -1.18868332       0.00000000      -0.37529265       0.01960571
C       -1.73355387      -1.56232646      -1.18868332       0.00000000       0.37529265       0.01960571
4
Lattice="-3.50481741 0.0 0.0 0.0 -2.25505868 -3.00265911 0.0 -2.25505868 3.00265911" Properties=species:S:1:pos:R:3:forces:R:3 e_per_atom_relaxed=-7.53354357 mp_id=mp-1001603 energy_per_atom=-7.505313605 ef_per_atom_relaxed=-7.53354357 corrected_total_energy=-30.02125442 ef_per_atom=-0.3167356150000007 task_id=mp-1066516 calc_id=1 ionic_step=1 energy=-30.02125442 stress="0.024688889456050665 -0.0 -0.0 -0.0 -0.031844490499758016 -0.0 -0.0 -0.0 0.020087327334691815" pbc="T T T"
Lu       0.00000000       0.00000000       0.00435812       0.00000000       0.00000000      -0.11823988
Ni      -1.75240870      -2.25505868       0.66334823       0.00000000       0.00000000       0.88577509
C       -1.75240870      -2.91370003      -1.18961102       0.00000000      -2.90945215      -0.38376761
C       -1.75240870      -1.59641733      -1.18961102       0.00000000       2.90945215      -0.38376761
4
Lattice="2.248678 -2.979562 0.0 2.248678 2.979562 0.0 0.0 0.0 3.468055" Properties=species:S:1:pos:R:3:forces:R:3:magmoms:R:1 bandgap=0.0 e_per_atom_relaxed=-7.53354357 mp_id=mp-1001603 energy_per_atom=-7.53354357 ef_per_atom_relaxed=-7.53354357 corrected_total_energy=-30.13417428 ef_per_atom=-0.3449655800000002 task_id=mp-1438522 calc_id=0 ionic_step=0 energy=-30.13417428 stress="0.0016537626785971885 -0.0 -0.0 -0.0 0.0021662390369090578 -0.0 -0.0 -0.0 -0.0012425536449320782" pbc="T T T"
Lu       2.24867800       2.97366247       0.00000000      -0.00000000      -0.01893722       0.00000000       0.00000000
Ni       2.24867800      -0.66917387       1.73402750      -0.00000000      -0.00744728       0.00000000      -0.00000000
C        2.93731090       1.18670889       1.73402750      -0.00789402       0.01319225      -0.00000000      -0.00000000
C        1.56004510       1.18670889       1.73402750       0.00789402       0.01319225       0.00000000      -0.00000000
84
Lattice="8.576111 0.0 0.0 0.0 -12.128452 0.0 0.0 6.064226 -10.503548" Properties=species:S:1:pos:R:3:forces:R:3:magmoms:R:1 bandgap=0.0519 e_per_atom_relaxed=-6.646093135595239 mp_id=mp-1001608 energy_per_atom=-6.646164265714287 ef_per_atom_relaxed=-6.646093135595239 corrected_total_energy=-558.27779832 ef_per_atom=0.7468279751785714 task_id=mp-1001608 calc_id=0 ionic_step=0 energy=-533.54579832 stress="-0.20146471415793615 0.0021848432841643423 -0.00023444215520536447 0.0021848432841643423 -0.5538778463368775 -0.013935528411874827 -0.00023444215520536447 -0.013935528411874827 0.15810893679968496" pbc="T T T"
C        5.30093709      -1.74065117      -7.18014138       3.80461540       3.21612749       1.88026151       0.02100000
C        4.41400427      -7.17772099      -4.40967305       2.40388298      19.32714849      -2.84095777      -0.00000000
C        1.70045414       0.80527463      -9.41728157       2.11145462     -10.38126286       0.67197901       0.00100000
C        5.22913789      -1.68441154      -9.27780496       4.66702187       4.35106740      -6.00982375       0.00200000
C        3.59740413      -6.59482758      -3.22420060       3.00418873      -6.04778958      -8.41521422       0.00000000
C        2.59658913       0.17708146      -8.50509044      -3.15488830       7.13444178      -3.20488016      -0.00000000
C        0.99055797      -5.03618809      -8.56401534       2.44592837      -2.89267599      -1.36482802       0.04500000
C        1.51874350       0.65454830      -1.29265065       4.63416821      -3.05699775      -0.12830332       0.10500000
C        8.51122414     -10.35411405      -0.64688201       5.12557814      -2.91910630       1.51552662       0.10400000
C        1.32060960      -5.40005984      -6.63895658      -5.98904195       2.66572009       5.70339291       0.01800000
C        2.04734925       0.15028365      -2.97452077     -18.46323862      19.98034545       5.77535082      -0.00200000
C        7.46803458      -9.74694555      -0.89007066      -9.12922212       4.35945486      -8.16419640       0.00900000
C        0.63618449      -3.77393764      -0.21479756       1.40462029      -6.30153140       3.92627244       0.00000000
C        5.81984326      -1.37510570      -3.94010143       5.18872958       4.49496357      -0.85789034       0.13700000
C        5.99522473      -7.56335725      -6.34864901       2.20724392      10.33123283      -1.04036330       0.00100000
C        0.70119999      -2.56019493      -0.29846882      -0.66516339      12.53711783      -3.28179745      -0.00100000
C        6.64393034      -0.69810763      -2.92676113       1.79248748       2.11211434       1.78269996       0.01900000
C        6.88762911      -6.93466681      -7.27831805      -3.27011448      -7.07745062       3.59866935      -0.00000000
C        4.93002887      -9.05063293      -5.04782661       1.47472034       6.45593578      -3.81784975       0.00000000
C        0.11558025      -5.64629774      -0.84865517       2.26927596     -19.15723864       2.95570750      -0.00000000
C        4.23711340      -2.49644779      -4.60706622       1.84510062       0.23197412       2.69494233       0.45300000
C        4.99467559       1.86397327      -4.95824185      -0.18088815     -12.38194606       2.70779631      -0.00000000
C        7.86994544      -6.23338152      -2.02384464       3.03056940       7.43664723       8.65338043       0.00100000
C        3.34221337      -3.03179766      -3.52146152      10.07851808       3.73345421       3.04386559      -0.03200000
C        4.94463398      -2.00548805      -3.30395404      -2.69907230      -2.70896164      -1.59258907       0.04600000
C        5.80918316       3.44740939      -6.14074178      -3.21015869     -12.62783218       2.74857493       0.00000000
C        8.50685033      -4.52435528      -1.05885217      -2.55823487      14.86678277      -3.01612046      -0.00000000
C        4.60218987      -2.35713433      -1.37752982       5.27271977       2.57983383       5.49802843       0.03000000
C        6.34699108       2.47333702      -6.98909235       2.09816106      -2.47122646      -3.78704355       0.00000000
C        7.47173946      -4.38621828      -2.13692583      13.09471831     -11.99403655       9.22731771       0.00000000
C        0.64573828     -10.83709933      -1.93803065      -3.80167965       3.07044308       1.88681701       0.02900000
C        0.12192657      -4.40248253      -9.20705306      -5.16327425       4.23423627      -1.03502325       0.13400000
C        1.70432196      -5.52140500      -9.86201230      -1.77221005       0.22288638       2.57269213       0.48100000
C        0.71879817       1.34240739      -4.03625091      -4.78502548       4.37148654      -5.81559715      -0.00000000
C        7.87753530      -3.71959004      -8.20320797      -1.98944387       2.21820309       1.90600254       0.02600000
C        2.59701793      -6.04992049      -8.76763713     -10.78031037       4.26190334       3.38075158      -0.02900000
C        0.98681021       0.05139432     -10.25487650      -0.83127512       1.28143503      -3.24450111       0.00100000
C        4.42591648      -2.38042095      -6.54019172      -4.78680394      -2.90470307      -0.30465974       0.08700000
C        4.22287706      -8.30107640      -4.21202778      -2.87319052     -14.68069739       3.03568706      -0.00000000
C        1.32370558      -1.06178533      -9.64511403      11.85398733      20.76296371       5.84596223       0.00000000
C        3.88771406      -2.87481304      -8.22172572      19.02052890      18.54287740       6.21185397      -0.00400000
C        3.18680566      -8.44342198      -3.14025625      12.46421119      11.02251782      -9.19318117       0.00000000
C        5.28338179      -6.80967098      -5.51615881      -0.80259812      -0.83068893       3.39180223       0.00000000
C        1.50898388       1.92345727      -9.61006369      -3.35202666      12.85509507      -2.61093730       0.00200000
C        6.01290867      -1.26129837      -5.88087350      -5.04906964      -3.08118359       1.49021091       0.12000000
C        5.62024285      -5.69784972      -6.14415544      12.71380496     -21.35500098      -5.66456699       0.00100000
C        2.03878172       2.89884557      -8.74577924       1.98732813       1.90565612       3.73325323       0.00100000
C        7.05545503      -0.64848407      -6.11716132       9.08617117       4.36486884      -8.27473683       0.01400000
O        4.39990514      -2.42066922      -9.82298111      -2.74955274      -2.67820241       3.68243635      -0.06300000
O        2.85422408      -7.39192764      -2.57362135      -1.81746611       1.29522600       1.43370379       0.00000000
O        2.29855212      -0.93477618      -8.61049354      -3.67292741     -15.28274360      -0.64686602       0.00200000
O        5.69022392      -1.11784304     -10.41865833       1.69017370       1.56928097       4.54803528      -0.16900000
O        3.53227714      -5.65617030      -2.72782393       1.91254316      22.30894421       7.19691413       0.00100000
O        3.46296501       0.45706678      -7.86061374       9.62172520       5.31124156       6.91517162       0.00400000
O        0.87317674      -5.31159491      -5.13117226       1.07857788      -0.12162686      -7.18140888      -0.11400000
O        2.72545377      -0.55712651      -3.10380894      23.50946930     -24.85100513      -3.70291124      -0.00300000
O        6.91503836      -9.58383606      -2.26856680       1.33388819      -0.18896894       7.99210114       0.28600000
O        1.52677074       3.82097784      -9.52168684       0.46704062       9.44904450       0.56487691       0.02000000
O        7.39073809      -0.32547307      -4.30354520       2.29254286       1.45341826       2.83637891       0.20000000
O        6.58905181      -5.82281523      -7.18187447      -4.07089512      14.95111464       0.66456695       0.00100000
O        0.23919631      -1.90419122      -1.27769359       2.40525524       0.35299721       3.68069117       0.01000000
O        6.70802820      -0.41411387      -1.30317520      -0.07803270      -1.06262696      -8.35797827       0.19500000
O        7.75126922      -7.21602264      -7.92266870       9.84830937      -5.44502833      -7.05819883       0.00300000
O        5.83167830       1.54879726      -6.20605285       0.46542849      -9.28956479      -0.60986049       0.00900000
O        7.13766563      -5.43890121      -2.69799386      -1.67426147      -1.33217430      -1.47020746       0.00100000
O        3.62877554      -2.95774133      -1.59950130      -5.59126846      -3.39846769      -0.37431177      -0.03400000
O        4.51696048       1.20777551      -3.99563369       2.00737338      -0.52324317      -3.46577942       0.00400000
O        7.79892667      -7.17715701      -2.48833254       1.74666177     -23.81303100      -7.41361050       0.00500000
O        2.48523690      -3.41980503      -4.01957127     -16.13136493      -7.05676045      -4.80191521       0.19700000
O        5.03044655       3.82168735     -10.36395585      -1.09639548      -0.23473117      -7.32655662      -0.21400000
O        7.04738491       2.39549662      -8.17290523      -3.99525092      -0.19495637       6.45000538       0.01400000
O        6.93340839      -3.58813582      -2.47023492     -15.34793628      28.59448880      -8.39734005       0.00200000
O        1.54893141       0.60980644      -4.57496738       2.90741899      -2.62241609       3.51901835      -0.08000000
O        7.13958668      -3.34338366      -9.58500222      -2.38996900       1.40424713       2.88200597       0.20300000
O        2.29892089      -5.98474219      -6.84712640       6.24587143      -3.68791535      -0.64348418      -0.02700000
O        0.24721498       1.89629560      -5.17797607      -1.57009021       1.48002301       4.60254114      -0.24200000
O        7.80309466      -3.44651795      -6.57509501       0.17282087      -0.82947845      -8.35744513       0.19200000
O        3.45478340      -6.43602370      -9.25402492      17.01972423      -7.29121253      -4.93547701       0.17700000
O        0.89970265      -1.94206231      -9.85103609     -14.57504719     -34.13662389      -6.43595899       0.00600000
O        3.18119689      -3.55532836      -8.36180104     -24.12220839     -23.55578495      -3.98555996       0.00200000
O        2.64842314      -9.24281431      -2.79425887     -14.64378739     -27.49203220       8.17323321       0.00200000
O        5.19103423      -4.82005301      -5.94765506     -15.63159118      34.75727229       6.24753476       0.00900000
O        2.73969869       2.97752284      -7.55816408      -3.95405241       0.31095008      -6.43430716       0.00400000
O        7.59593012      -0.45635726      -7.50127686      -1.38553156      -0.20825879       8.03622451       0.24700000
4
Lattice="0.0 0.0 -4.01251484 -4.25565053 0.0 0.0 2.12782527 5.26973932 -0.0" Properties=species:S:1:pos:R:3:forces:R:3:magmoms:R:1 bandgap=0.0 e_per_atom_relaxed=-4.3831446575 mp_id=mp-1001613 energy_per_atom=-4.3800191275 ef_per_atom_relaxed=-4.3831446575 corrected_total_energy=-17.52007651 ef_per_atom=-0.6054989074999995 task_id=mp-1067797 calc_id=0 ionic_step=3 energy=-17.52007651 stress="-0.009199596192235239 -0.0 -0.0 -0.0 -0.00912524881476538 0.0 -0.0 0.0 -0.005910388515887649" pbc="T T T"
Lu       0.00000000       1.45380651      -3.00938613       0.00000000       0.06340370      -0.00000000      -0.00000000
Lu      -2.12782526       3.81593281      -1.00312871       0.00000000      -0.06340370       0.00000000       0.00100000
Ga      -0.00000002       4.44401633      -3.00938613       0.00000000      -0.02279347       0.00000000      -0.00000000
Ga      -2.12782524       0.82572299      -1.00312871      -0.00000000       0.02279347      -0.00000000       0.00000000
4
Lattice="0.0 0.0 -4.03203551 -4.25886087 0.0 0.0 2.12943043 5.27801672 0.0" Properties=species:S:1:pos:R:3:forces:R:3 e_per_atom_relaxed=-4.3831446575 mp_id=mp-1001613 energy_per_atom=-4.3794367625 ef_per_atom_relaxed=-4.3831446575 corrected_total_energy=-17.51774705 ef_per_atom=-0.6049165424999998 task_id=mp-1067797 calc_id=0 ionic_step=0 energy=-17.51774705 stress="0.0007076602949267053 -0.0 -0.0 -0.0 0.0014722835855775832 0.0 -0.0 0.0 0.004545049475484145" pbc="T T T"
Lu      -0.00000000       1.45253237      -3.02402663      -0.00000000       0.07568191      -0.00000000
Lu      -2.12943044       3.82548435      -1.00800888       0.00000000      -0.07568191       0.00000000
Ga       0.00000002       4.45347867      -3.02402663       0.00000000      -0.05279670      -0.00000000
Ga      -2.12943046       0.82453805      -1.00800888       0.00000000       0.05279670       0.00000000
4
Lattice="0.0 -0.0 -4.03336976 -4.2566586 0.0 0.0 2.1283293 5.28614865 0.0" Properties=species:S:1:pos:R:3:forces:R:3 e_per_atom_relaxed=-4.3831446575 mp_id=mp-1001613 energy_per_atom=-4.3789562 ef_per_atom_relaxed=-4.3831446575 corrected_total_energy=-17.5158248 ef_per_atom=-0.6044359799999999 task_id=mp-1067797 calc_id=1 ionic_step=3 energy=-17.5158248 stress="9.80411634776989e-05 -0.0 -0.0 -0.0 0.0025984931535957666 -0.0 -0.0 -0.0 0.0035196755568585565" pbc="T T T"
Lu      -0.00000002       1.45142328      -3.02502732      -0.00000000       0.08395259       0.00000000
Lu      -2.12832928       3.83472537      -1.00834244       0.00000000      -0.08395259      -0.00000000
Ga       0.00000000       4.46522203      -3.02502732       0.00000000      -0.03252710      -0.00000000
Ga      -2.12832930       0.82092662      -1.00834244      -0.00000000       0.03252710       0.00000000
4
Lattice="0.0 -0.0 -4.03722974 -4.25028744 0.0 0.0 2.12514372 5.30967438 0.0" Properties=species:S:1:pos:R:3:forces:R:3 e_per_atom_relaxed=-4.3831446575 mp_id=mp-1001613 energy_per_atom=-4.3764819775 ef_per_atom_relaxed=-4.3831446575 corrected_total_energy=-17.50592791 ef_per_atom=-0.6019617574999998 task_id=mp-1067797 calc_id=1 ionic_step=2 energy=-17.50592791 stress="-0.0015443197571841638 -0.0 -0.0 -0.0 0.0042700076640639 -0.0 -0.0 -0.0 0.0008540066633332814" pbc="T T T"
Lu       0.00000000       1.44819978      -3.02792230      -0.00000000       0.21665506       0.00000000
Lu      -2.12514372       3.86147460      -1.00930743       0.00000000      -0.21665506      -0.00000000
Ga       0.00000000       4.49921747      -3.02792230       0.00000000      -0.31530281      -0.00000000
Ga      -2.12514372       0.81045691      -1.00930743      -0.00000000       0.31530281       0.00000000
4
Lattice="0.0 -0.0 -4.07421188 -4.29033208 0.0 0.0 2.14516604 5.34315121 0.0" Properties=species:S:1:pos:R:3:forces:R:3 e_per_atom_relaxed=-4.3831446575 mp_id=mp-1001613 energy_per_atom=-4.3727889925 ef_per_atom_relaxed=-4.3831446575 corrected_total_energy=-17.49115597 ef_per_atom=-0.5982687725 task_id=mp-1067797 calc_id=1 ionic_step=1 energy=-17.49115597 stress="0.008418833445007415 -0.0 -0.0 -0.0 0.012126628442686112 -0.0 -0.0 -0.0 0.011693924431780101" pbc="T T T"
Lu       0.00000000       1.46460594      -3.05565891      -0.00000000       0.06180535       0.00000000
Lu      -2.14516604       3.87854527      -1.01855297      -0.00000000      -0.06180535      -0.00000000
Ga       0.00000002       4.52059921      -3.05565891      -0.00000000      -0.00024101      -0.00000000
Ga      -2.14516606       0.82255200      -1.01855297       0.00000000       0.00024101       0.00000000
4
Lattice="0.0 0.0 -3.964682 -4.171732 0.0 0.0 2.085866 5.244003 0.0" Properties=species:S:1:pos:R:3:forces:R:3 e_per_atom_relaxed=-4.3831446575 mp_id=mp-1001613 energy_per_atom=-4.3606748625 ef_per_atom_relaxed=-4.3831446575 corrected_total_energy=-17.44269945 ef_per_atom=-0.5861546424999995 task_id=mp-1067797 calc_id=1 ionic_step=0 energy=-17.44269945 stress="-0.02717752455297843 -0.0 -0.0 -0.0 -0.018074373539129853 -0.0 -0.0 -0.0 -0.026409826638758557" pbc="T T T"
Lu       0.00000000       1.41588081      -2.97351150      -0.00000000       0.44665305       0.00000000
Lu      -2.08586600       3.82812219      -0.99117050       0.00000000      -0.44665305       0.00000000
Ga       0.00000000       4.45740255      -2.97351150      -0.00000000      -0.42883584       0.00000000
Ga      -2.08586600       0.78660045      -0.99117050       0.00000000       0.42883584       0.00000000
4
Lattice="0.0 0.0 4.01071743 4.23344571 0.0 0.0 -2.11672286 5.30370921 0.0" Properties=species:S:1:pos:R:3:forces:R:3:magmoms:R:1 bandgap=0.0 e_per_atom_relaxed=-4.3831446575 mp_id=mp-1001613 energy_per_atom=-4.3854263875 ef_per_atom_relaxed=-4.3831446575 corrected_total_energy=-17.54170555 ef_per_atom=-0.6109061674999996 task_id=mp-1001613 calc_id=0 ionic_step=1 energy=-17.54170555 stress="-0.00045241233119359226 -0.0 -0.0 -0.0 -0.0003691361191531375 -0.0 -0.0 -0.0 -0.00024807288087972583" pbc="T T T"
Lu      -0.00000000       1.46778392       1.00267936       0.00000000       0.04269587       0.00000000       0.00100000
Lu       2.11672285       3.83592529       3.00803807       0.00000000      -0.04269587       0.00000000       0.00100000
Ga       0.00000002       4.46986243       1.00267936      -0.00000000       0.02831670       0.00000000      -0.00000000
Ga       2.11672283       0.83384678       3.00803807       0.00000000      -0.02831670       0.00000000      -0.00000000
4
Lattice="0.0 0.0 4.02275779 4.24295336 0.0 0.0 -2.12147668 5.31670116 0.0" Properties=species:S:1:pos:R:3:forces:R:3 e_per_atom_relaxed=-4.3831446575 mp_id=mp-1001613 energy_per_atom=-4.384973695 ef_per_atom_relaxed=-4.3831446575 corrected_total_energy=-17.53989478 ef_per_atom=-0.6104534749999999 task_id=mp-1001613 calc_id=0 ionic_step=0 energy=-17.53989478 stress="0.0020473847061643507 -0.0 -0.0 -0.0 0.002232680962610636 -0.0 -0.0 -0.0 0.0027347031988347436" pbc="T T T"
Lu       0.00000000       1.46695622       1.00568945       0.00000000       0.09168576       0.00000000
Lu       2.12147668       3.84974494       3.01706834      -0.00000000      -0.09168576       0.00000000
Ga       0.00000000       4.48498886       1.00568945       0.00000000      -0.08658445       0.00000000
Ga       2.12147668       0.83171230       3.01706834       0.00000000       0.08658445      -0.00000000
4
Lattice="0.0 -0.0 4.02649168 4.24538974 0.0 0.0 -2.12269487 5.32096419 0.0" Properties=species:S:1:pos:R:3:forces:R:3 e_per_atom_relaxed=-4.3831446575 mp_id=mp-1001613 energy_per_atom=-4.3844501675 ef_per_atom_relaxed=-4.3831446575 corrected_total_energy=-17.53780067 ef_per_atom=-0.6099299474999995 task_id=mp-1001613 calc_id=1 ionic_step=3 energy=-17.53780067 stress="0.0017774487675260428 -0.0 -0.0 -0.0 0.0020196432141072473 -0.0 -0.0 -0.0 0.002390114435752975" pbc="T T T"
Lu       0.00000002       1.46453968       1.00662292      -0.00000000       0.10610213       0.00000000
Lu       2.12269485       3.85642451       3.01986876       0.00000000      -0.10610213       0.00000000
Ga       0.00000002       4.49240275       1.00662292       0.00000000      -0.08840847       0.00000000
Ga       2.12269485       0.82856144       3.01986876      -0.00000000       0.08840847       0.00000000
4
Lattice="0.0 0.0 4.03728859 4.25243476 0.0 0.0 -2.12621738 5.33329116 0.0" Properties=species:S:1:pos:R:3:forces:R:3 e_per_atom_relaxed=-4.3831446575 mp_id=mp-1001613 energy_per_atom=-4.3820010775 ef_per_atom_relaxed=-4.3831446575 corrected_total_energy=-17.52800431 ef_per_atom=-0.6074808574999997 task_id=mp-1001613 calc_id=1 ionic_step=2 energy=-17.52800431 stress="0.0008765054624868985 -0.0 -0.0 -0.0 0.001631976772132912 -0.0 -0.0 -0.0 0.001887263520603733" pbc="T T T"
Lu       0.00000000       1.45754367       1.00932215       0.00000000       0.24642721       0.00000000
Lu       2.12621738       3.87574749       3.02796644       0.00000000      -0.24642721       0.00000000
Ga       0.00000002       4.51384959       1.00932215      -0.00000000      -0.26301163       0.00000000
Ga       2.12621736       0.81944157       3.02796644       0.00000000       0.26301163       0.00000000
4
Lattice="0.0 0.0 4.0001 4.209 0.0 0.0 -2.1045 5.29085 0.0" Properties=species:S:1:pos:R:3:forces:R:3 e_per_atom_relaxed=-4.3831446575 mp_id=mp-1001613 energy_per_atom=-4.3748377075 ef_per_atom_relaxed=-4.3831446575 corrected_total_energy=-17.49935083 ef_per_atom=-0.6003174874999999 task_id=mp-1001613 calc_id=1 ionic_step=0 energy=-17.49935083 stress="-0.01098007818340024 -0.0 -0.0 -0.0 -0.008535101356785446 -0.0 -0.0 -0.0 -0.009892037659422575" pbc="T T T"
Lu       0.00000000       1.42852950       1.00002500      -0.00000000       0.41212550       0.00000000
Lu       2.10450000       3.86232050       3.00007500       0.00000000      -0.41212550       0.00000000
Ga       0.00000000       4.49722250       1.00002500      -0.00000000      -0.45656244       0.00000000
Ga       2.10450000       0.79362750       3.00007500       0.00000000       0.45656244       0.00000000
4
Lattice="2.116723 -5.303709 0.0 2.116723 5.303709 0.0 0.0 0.0 4.010717" Properties=species:S:1:pos:R:3:forces:R:3:magmoms:R:1 bandgap=0.0 e_per_atom_relaxed=-4.3831446575 mp_id=mp-1001613 energy_per_atom=-4.3831446575 ef_per_atom_relaxed=-4.3831446575 corrected_total_energy=-17.53257863 ef_per_atom=-0.6086244374999996 task_id=mp-1441069 calc_id=0 ionic_step=0 energy=-17.53257863 stress="-0.00835588668951822 0.0 -0.0 0.0 -0.0011568857490096764 -0.0 -0.0 -0.0 -0.0011863611323019501" pbc="T T T"
Lu       2.11672300      -3.83592875       1.00267925      -0.00000000       0.05676678       0.00000000      -0.00000000
Lu       2.11672300       3.83592875       3.00803775       0.00000000      -0.05676678      -0.00000000       0.00000000
Ga       2.11672300      -0.83384913       1.00267925       0.00000000       0.01539677       0.00000000       0.00000000
Ga       2.11672300       0.83384913       3.00803775       0.00000000      -0.01539677      -0.00000000      -0.00000000
4
Lattice="-1.87050047 -3.23977998 -0.00026117 -1.8704815 3.23976903 0.0 -0.00045492 -0.00026265 -6.70161226" Properties=species:S:1:pos:R:3:forces:R:3:magmoms:R:1 bandgap=0.0 e_per_atom_relaxed=-5.95470658 mp_id=mp-1001615 energy_per_atom=-5.9546671275 ef_per_atom_relaxed=-5.95470658 corrected_total_energy=-23.81866851 ef_per_atom=-1.592555517838542 task_id=mp-1064514 calc_id=0 ionic_step=2 energy=-22.87466851 stress="0.00017575512358893112 -1.6577260993072158e-06 5.197828935889564e-05 -1.6577260993072158e-06 0.00017766930705671174 3.0009675197976777e-05 5.197828935889564e-05 3.0009675197976777e-05 0.0011760071989186773" pbc="T T T"
Li      -0.00022746      -0.00013133      -3.35080613      -0.00000000      -0.00000000       0.00000000       0.00000000
Zr       0.00000000       0.00000000       0.00000000      -0.00000000      -0.00000000       0.00000000       0.00500000
Se      -1.87072625       1.07978172      -1.70127506       0.00097005       0.00056006       0.07128744      -0.00000000
Se      -1.87071064      -1.08005532      -5.00059837      -0.00097005      -0.00056006      -0.07128744      -0.00000000
4
Lattice="-1.86580461 -3.23189646 -0.00011947 -1.8660021 3.23201048 0.0 -0.00020085 -0.00011596 -6.68865968" Properties=species:S:1:pos:R:3:forces:R:3 e_per_atom_relaxed=-5.95470658 mp_id=mp-1001615 energy_per_atom=-5.954428845 ef_per_atom_relaxed=-5.95470658 corrected_total_energy=-23.81771538 ef_per_atom=-1.5923172353385422 task_id=mp-1064514 calc_id=0 ionic_step=0 energy=-22.87371538 stress="-0.004498430782494664 -6.140555212375748e-05 -6.93624089611981e-05 -6.140555212375748e-05 -0.0044275258656926225 -4.004640884596286e-05 -6.93624089611981e-05 -4.004640884596286e-05 -0.00354305942697226" pbc="T T T"
Li      -0.00010043      -0.00005798      -3.34432984      -0.00000000      -0.00000000       0.00000000
Zr       0.00000000       0.00000000       0.00000000       0.00000000      -0.00000000       0.00000000
Se      -1.86612177       1.07726772      -1.69856315       0.00043545       0.00025141       0.02293895
Se      -1.86588579      -1.07726966      -4.99021600      -0.00043545      -0.00025141      -0.02293895
4
Lattice="-1.87216825 -3.24214965 -0.00020355 -1.8716998 3.24187919 0.0 -0.00035426 -0.00020453 -6.6246826" Properties=species:S:1:pos:R:3:forces:R:3 e_per_atom_relaxed=-5.95470658 mp_id=mp-1001615 energy_per_atom=-5.950887444999999 ef_per_atom_relaxed=-5.95470658 corrected_total_energy=-23.803549779999997 ef_per_atom=-1.5887758353385417 task_id=mp-1064514 calc_id=1 ionic_step=7 energy=-22.85954978 stress="0.0011593215728441617 0.0001153159568061524 3.714740261924561e-05 0.0001153159568061524 0.0010261661970695011 2.14470611753418e-05 3.714740261924561e-05 2.14470611753418e-05 -0.006495425451161345" pbc="T T T"
Li      -0.00017713      -0.00010226      -3.31234130       0.00000000      -0.00000000       0.00000000
Zr       0.00000000       0.00000000       0.00000000       0.00000000      -0.00000000       0.00000000
Se      -1.87206152       1.08041754      -1.68541017       0.00004525       0.00002612      -0.03680619
Se      -1.87216079      -1.08089253      -4.93947598      -0.00004525      -0.00002612       0.03680619
4
Lattice="-1.87920194 -3.25521514 2.649e-05 -1.879498 3.25538608 -0.0 5.049e-05 2.915e-05 -6.60828054" Properties=species:S:1:pos:R:3:forces:R:3 e_per_atom_relaxed=-5.95470658 mp_id=mp-1001615 energy_per_atom=-5.94998407 ef_per_atom_relaxed=-5.95470658 corrected_total_energy=-23.79993628 ef_per_atom=-1.5878724603385426 task_id=mp-1064514 calc_id=1 ionic_step=5 energy=-22.85593628 stress="0.004244169963361882 -8.720292643531252e-05 -4.4297650507820976e-05 -8.720292643531252e-05 0.004344863337553952 -2.5575257726292244e-05 -4.4297650507820976e-05 -2.5575257726292244e-05 -0.002366493388292488" pbc="T T T"
Li       0.00002524       0.00001458      -3.30414027      -0.00000000       0.00000000      -0.00000000
Zr       0.00000000       0.00000000       0.00000000      -0.00000000       0.00000000       0.00000000
Se      -1.87945010       1.08515635      -1.69399917      -0.00085719      -0.00049490       0.12864773
Se      -1.87919935      -1.08495626      -4.91425488       0.00085719       0.00049490      -0.12864773
4
Lattice="-1.86111154 -3.22390131 6.743e-05 -1.86142463 3.22408207 -0.0 0.00012181 7.033e-05 -6.63400282" Properties=species:S:1:pos:R:3:forces:R:3 e_per_atom_relaxed=-5.95470658 mp_id=mp-1001615 energy_per_atom=-5.947769732499999 ef_per_atom_relaxed=-5.95470658 corrected_total_energy=-23.791078929999998 ef_per_atom=-1.5856581228385418 task_id=mp-1064514 calc_id=1 ionic_step=4 energy=-22.84707893 stress="-0.0019570419261481713 -6.498353467922481e-06 -9.236091581845156e-06 -6.498353467922481e-06 -0.0019495383214619432 -5.332458287734866e-06 -9.236091581845156e-06 -5.332458287734866e-06 0.002200966787443963" pbc="T T T"
Li       0.00006091       0.00003516      -3.31700141      -0.00000000       0.00000000       0.00000000
Zr       0.00000000       0.00000000       0.00000000      -0.00000000       0.00000000       0.00000000
Se      -1.86137817       1.07472085      -1.72501276       0.00025782       0.00014885       0.33297937
Se      -1.86103619      -1.07446976      -4.90892263      -0.00025782      -0.00014885      -0.33297937
4
Lattice="-1.84733944 -3.20006229 9.861e-05 -1.84766548 3.20025053 -0.0 0.00017611 0.00010168 -6.65358502" Properties=species:S:1:pos:R:3:forces:R:3 e_per_atom_relaxed=-5.95470658 mp_id=mp-1001615 energy_per_atom=-5.9425166825 ef_per_atom_relaxed=-5.95470658 corrected_total_energy=-23.77006673 ef_per_atom=-1.5804050728385424 task_id=mp-1064514 calc_id=1 ionic_step=3 energy=-22.82606673 stress="-0.006835425194590381 -4.391232470042544e-06 -1.0672431352457293e-05 -4.391232470042544e-06 -0.006830354804787825 -6.161730156236218e-06 -1.0672431352457293e-05 -6.161730156236218e-06 0.0056747003370079385" pbc="T T T"
Li       0.00008805       0.00005084      -3.32679251       0.00000000      -0.00000000       0.00000000
Zr       0.00000000       0.00000000       0.00000000      -0.00000000      -0.00000000       0.00000000
Se      -1.84761972       1.06677660      -1.74869541       0.00042625       0.00024610       0.46997238
Se      -1.84720909      -1.06648668      -4.90479100      -0.00042625      -0.00024610      -0.46997238
4
Lattice="-1.85207602 -3.20828141 0.00010257 -1.85241516 3.20847721 -0.0 0.00018319 0.00010576 -6.67270873" Properties=species:S:1:pos:R:3:forces:R:3 e_per_atom_relaxed=-5.95470658 mp_id=mp-1001615 energy_per_atom=-5.9417417325 ef_per_atom_relaxed=-5.95470658 corrected_total_energy=-23.76696693 ef_per_atom=-1.579630122838542 task_id=mp-1064514 calc_id=1 ionic_step=2 energy=-22.82296693 stress="-0.001990282992899855 -7.750593685357564e-06 -9.962010300731009e-06 -7.750593685357564e-06 -0.0019813334240359427 -5.751569384028801e-06 -9.962010300731009e-06 -5.751569384028801e-06 0.01160657567872557" pbc="T T T"
Li       0.00009160       0.00005288      -3.33635437       0.00000000       0.00000000       0.00000000
Zr       0.00000000       0.00000000       0.00000000       0.00000000      -0.00000000       0.00000000
Se      -1.85236108       1.06952365      -1.75646803       0.00043688       0.00025224       0.55521321
Se      -1.85194691      -1.06922209      -4.91613813      -0.00043688      -0.00025224      -0.55521321
4
Lattice="-1.98148473 -3.43283706 0.00021079 -1.98218169 3.43323945 -0.0 0.00037646 0.00021735 -7.19519031" Properties=species:S:1:pos:R:3:forces:R:3 e_per_atom_relaxed=-5.95470658 mp_id=mp-1001615 energy_per_atom=-5.6723187 ef_per_atom_relaxed=-5.95470658 corrected_total_energy=-22.6892748 ef_per_atom=-1.3102070903385423 task_id=mp-1064514 calc_id=1 ionic_step=1 energy=-21.7452748 stress="0.0660873115394295 -0.00014984753046772207 9.275080416901812e-05 -0.00014984753046772207 0.06626034234414913 5.354970162850101e-05 9.275080416901812e-05 5.354970162850101e-05 0.10416508388860894" pbc="T T T"
Li       0.00018823       0.00010867      -3.59759516      -0.00000000       0.00000000       0.00000000
Zr       0.00000000       0.00000000       0.00000000      -0.00000000       0.00000000       0.00000000
Se      -1.98190039       1.14457558      -1.96904063       0.00080656       0.00046567       1.96228301
Se      -1.98138957      -1.14395584      -5.22593889      -0.00080656      -0.00046567      -1.96228301
4
Lattice="-1.729425 -2.995452 0.0 -1.729425 2.995452 0.0 0.0 0.0 -6.177511" Properties=species:S:1:pos:R:3:forces:R:3 e_per_atom_relaxed=-5.95470658 mp_id=mp-1001615 energy_per_atom=-5.5913995475 ef_per_atom_relaxed=-5.95470658 corrected_total_energy=-22.36559819 ef_per_atom=-1.2292879378385424 task_id=mp-1064514 calc_id=1 ionic_step=0 energy=-21.42159819 stress="-0.18907021463010978 0.00015070849671956467 7.894604025419069e-05 0.00015070849671956467 -0.1892442418667953 4.5579519169076624e-05 7.894604025419069e-05 4.5579519169076624e-05 -0.213411976445687" pbc="T T T"
Li       0.00000000       0.00000000      -3.08875550       0.00000000       0.00000000       0.00000000
Zr       0.00000000       0.00000000       0.00000000      -0.00000000       0.00000000       0.00000000
Se      -1.72959794       0.99838415      -1.54437775       0.00260740       0.00150538      -3.03101950
Se      -1.72925206      -0.99838415      -4.63313325      -0.00260740      -0.00150538       3.03101950
4
Lattice="3.75068662 4.487e-05 -0.00010252 -1.87530445 3.24812286 -0.0 -0.00018314 -0.00010574 6.71991209" Properties=species:S:1:pos:R:3:forces:R:3:magmoms:R:1 bandgap=0.0 e_per_atom_relaxed=-5.95470658 mp_id=mp-1001615 energy_per_atom=-5.9519441125 ef_per_atom_relaxed=-5.95470658 corrected_total_energy=-23.80777645 ef_per_atom=-1.589832502838542 task_id=mp-1001615 calc_id=0 ionic_step=0 energy=-22.86377645 stress="0.0007874937716729415 2.7269939801133815e-05 2.7763224991879746e-05 2.7269939801133815e-05 0.00075600528947626 1.602910669560059e-05 2.7763224991879746e-05 1.602910669560059e-05 -0.0003887738854215592" pbc="T T T"
Li      -0.00009157      -0.00005287       3.35995605       0.00000000      -0.00000000       0.00000000       0.00000000
Zr       0.00000000       0.00000000       0.00000000       0.00000000      -0.00000000       0.00000000       0.00000000
Se       1.87509405       1.08258612       5.03078914       0.00141901       0.00081927      -0.02806589       0.00000000
Se       0.00010498       2.16547587       1.68902043      -0.00141901      -0.00081927       0.02806589       0.00000000
4
Lattice="3.76601567 7.659e-05 -0.00017499 -1.88294151 3.26135063 -0.0 -0.00031259 -0.00018048 6.76226057" Properties=species:S:1:pos:R:3:forces:R:3 e_per_atom_relaxed=-5.95470658 mp_id=mp-1001615 energy_per_atom=-5.9502365825 ef_per_atom_relaxed=-5.95470658 corrected_total_energy=-23.80094633 ef_per_atom=-1.588124972838542 task_id=mp-1001615 calc_id=1 ionic_step=1 energy=-22.85694633 stress="0.008559045826765819 6.814529595712348e-06 -1.1227139234511042e-05 6.814529595712348e-06 0.008551178541825842 -6.481994472503539e-06 -1.1227139234511042e-05 -6.481994472503539e-06 0.010469858505127926" pbc="T T T"
Li      -0.00015630      -0.00009024       3.38113028       0.00000000      -0.00000000       0.00000000
Zr       0.00000000       0.00000000       0.00000000      -0.00000000      -0.00000000       0.00000000
Se       1.88271362       1.08698533       5.05615372      -0.00189385      -0.00109341       0.15338659
Se       0.00004795       2.17426141       1.70593186       0.00189385       0.00109341      -0.15338659
4
Lattice="1.870486 -3.239777 0.0 1.870486 3.239777 0.0 0.0 0.0 6.701612" Properties=species:S:1:pos:R:3:forces:R:3:magmoms:R:1 bandgap=0.0 e_per_atom_relaxed=-5.95470658 mp_id=mp-1001615 energy_per_atom=-5.95470658 ef_per_atom_relaxed=-5.95470658 corrected_total_energy=-23.81882632 ef_per_atom=-1.5925949703385422 task_id=mp-1438386 calc_id=0 ionic_step=0 energy=-22.87482632 stress="0.0002786111744516102 -0.0 -0.0 -0.0 0.0002786112119006649 0.0 -0.0 0.0 0.0013504855594008178" pbc="T T T"
Li       0.00000000       0.00000000       3.35080600       0.00000000      -0.00000000       0.00000000       0.00000000
Zr       0.00000000       0.00000000       0.00000000       0.00000000      -0.00000000       0.00000000       0.01400000
Se       1.87048600      -1.07992783       5.00042120      -0.00000000      -0.00000000       0.07190707      -0.00000000
Se       1.87048600       1.07992783       1.70119080      -0.00000000       0.00000000      -0.07190707      -0.00000000
2
Lattice="-2.48061713 -2.48061713 0.0 -2.48061713 -0.0 -2.48061713 -0.0 -2.48061713 -2.48061713" Properties=species:S:1:pos:R:3:forces:R:3:magmoms:R:1 bandgap=0.0 e_per_atom_relaxed=-8.110813535 mp_id=mp-1001785 energy_per_atom=-8.10885778 ef_per_atom_relaxed=-8.110813535 corrected_total_energy=-16.21771556 ef_per_atom=0.020602720714286704 task_id=mp-1060328 calc_id=0 ionic_step=2 energy=-16.21771556 stress="0.002573002162484183 -0.0 0.0 -0.0 0.002573002162484183 -0.0 0.0 -0.0 0.002573002162484183" pbc="T T T"
Mo       0.00000000       0.00000000       0.00000000       0.00000000      -0.00000000      -0.00000000       0.23100000
P       -2.48061713      -2.48061713      -2.48061713      -0.00000000       0.00000000       0.00000000      -0.00900000
2
Lattice="-2.54190355 -2.54190355 0.0 -2.54190355 -0.0 -2.54190355 0.0 -2.54190355 -2.54190355" Properties=species:S:1:pos:R:3:forces:R:3 e_per_atom_relaxed=-8.110813535 mp_id=mp-1001785 energy_per_atom=-8.062889415 ef_per_atom_relaxed=-8.110813535 corrected_total_energy=-16.12577883 ef_per_atom=0.06657108571428516 task_id=mp-1060328 calc_id=1 ionic_step=1 energy=-16.12577883 stress="0.07330795614240934 -0.0 -0.0 -0.0 0.07330795614240934 -0.0 -0.0 -0.0 0.07330795614240934" pbc="T T T"
Mo       0.00000000       0.00000000       0.00000000      -0.00000000      -0.00000000       0.00000000
P       -2.54190355      -2.54190355      -2.54190355       0.00000000       0.00000000      -0.00000000
2
Lattice="-2.444938 -2.444938 0.0 -2.444938 0.0 -2.444938 0.0 -2.444938 -2.444938" Properties=species:S:1:pos:R:3:forces:R:3 e_per_atom_relaxed=-8.110813535 mp_id=mp-1001785 energy_per_atom=-8.0943171 ef_per_atom_relaxed=-8.110813535 corrected_total_energy=-16.1886342 ef_per_atom=0.035143400714286344 task_id=mp-1060328 calc_id=1 ionic_step=0 energy=-16.1886342 stress="-0.05624903488792689 -0.0 -0.0 -0.0 -0.05624903488792689 0.0 -0.0 0.0 -0.05624903488792689" pbc="T T T"
Mo       0.00000000       0.00000000       0.00000000      -0.00000000       0.00000000       0.00000000
P       -2.44493800      -2.44493800      -2.44493800       0.00000000      -0.00000000       0.00000000
2
Lattice="2.47962339 2.47962339 0.0 2.47962339 0.0 -2.47962339 -0.0 2.47962339 -2.47962339" Properties=species:S:1:pos:R:3:forces:R:3 bandgap=0.0 e_per_atom_relaxed=-8.110813535 mp_id=mp-1001785 energy_per_atom=-8.110823335 ef_per_atom_relaxed=-8.110813535 corrected_total_energy=-16.22164667 ef_per_atom=0.018637165714286752 task_id=mp-1001785 calc_id=1 ionic_step=2 energy=-16.22164667 stress="-0.0001995200003857153 -0.0 -0.0 -0.0 -0.0001995200003857153 0.0 -0.0 0.0 -0.0001995200003857153" pbc="T T T"
Mo       0.00000000       0.00000000       0.00000000      -0.00000000      -0.00000000       0.00000000
P        2.47962339       2.47962339      -2.47962339      -0.00000000      -0.00000000       0.00000000
2
Lattice="2.45746764 2.45746764 0.0 2.45746764 0.0 -2.45746764 -0.0 2.45746764 -2.45746764" Properties=species:S:1:pos:R:3:forces:R:3 e_per_atom_relaxed=-8.110813535 mp_id=mp-1001785 energy_per_atom=-8.1040967 ef_per_atom_relaxed=-8.110813535 corrected_total_energy=-16.2081934 ef_per_atom=0.025363800714286455 task_id=mp-1001785 calc_id=1 ionic_step=1 energy=-16.2081934 stress="-0.0335525272320838 0.0 -0.0 0.0 -0.0335525272320838 -0.0 -0.0 -0.0 -0.0335525272320838" pbc="T T T"
Mo       0.00000000       0.00000000       0.00000000       0.00000000       0.00000000       0.00000000
P        2.45746764       2.45746764      -2.45746764      -0.00000000       0.00000000       0.00000000
2
Lattice="2.495 2.495 0.0 2.495 0.0 -2.495 0.0 2.495 -2.495" Properties=species:S:1:pos:R:3:forces:R:3 e_per_atom_relaxed=-8.110813535 mp_id=mp-1001785 energy_per_atom=-8.107676695 ef_per_atom_relaxed=-8.110813535 corrected_total_energy=-16.21535339 ef_per_atom=0.02178380571428562 task_id=mp-1001785 calc_id=1 ionic_step=0 energy=-16.21535339 stress="0.020076715527117497 -0.0 -0.0 -0.0 0.020076715527117497 -0.0 -0.0 -0.0 0.020076715527117497" pbc="T T T"
Mo       0.00000000       0.00000000       0.00000000       0.00000000       0.00000000       0.00000000
P        2.49500000       2.49500000      -2.49500000       0.00000000       0.00000000       0.00000000
