1
Lattice="2.89172723 0.0 -1.02237997 -1.44586362 2.50430924 -1.02237997 0.0 0.0 3.0671399" Properties=species:S:1:pos:R:3:forces:R:3 energy=-9.774378924919608 pbc="T T T"
Hf       0.00000000       0.00000000       0.00000000       0.11666104       0.00200001       0.02470180
1
Lattice="2.83612034 0.0 -1.00271996 -1.41806017 2.45615226 -1.00271996 0.0 0.0 3.00815989" Properties=species:S:1:pos:R:3:forces:R:3 energy=-9.749747296400196 pbc="T T T"
Hf       0.00000000       0.00000000       0.00000000      -0.08603703      -0.05520900      -0.12361195
1
Lattice="2.94755266 0.0 -1.04211724 -1.47377633 2.55265548 -1.04211724 0.0 0.0 3.12635171" Properties=species:S:1:pos:R:3:forces:R:3 energy=-9.751843356590433 pbc="T T T"
Hf       0.00000000       0.00000000       0.00000000       0.07461036      -0.03522269      -0.07609858
1
Lattice="-1.770814 1.770814 1.770814 1.770814 -1.770814 1.770814 1.770814 1.770814 -1.770814" Properties=species:S:1:pos:R:3:forces:R:3 energy=-9.77669047037064 pbc="T T T"
Hf       0.00000000       0.00000000       0.00000000       0.00001709       0.00000226      -0.00049970
1
Lattice="-1.770814 1.770814 1.770814 1.770814 -1.770814 1.770814 1.770814 1.770814 -1.770814" Properties=species:S:1:pos:R:3:forces:R:3 energy=-9.781028891926177 pbc="T T T"
Hf       0.00000000       0.00000000       0.00000000      -0.01661623      -0.01792004       0.00025698
6
Lattice="1.693339 -2.93295 0.0 1.693339 2.93295 0.0 0.0 0.0 11.787358" Properties=species:S:1:pos:R:3:forces:R:3 energy=-54.268531371920545 pbc="T T T"
Hf       1.69333900      -0.97765196      10.60299963       0.00024412      -0.00025999      -0.05875765
Hf       1.69333900       0.97765196       4.70932063       0.00024295       0.00032263      -0.05870198
Hf       1.69333900      -0.97765196       7.07803737      -0.00043561       0.00023718       0.05834407
Hf       1.69333900       0.97765196       1.18435837      -0.09969059       0.01801221       0.06358632
S        0.00000000       0.00000000       8.84051850      -0.07800173      -0.01440378       0.02596920
S        0.00000000       0.00000000       2.94683950       0.00026436       0.01093499       0.02228882
6
Lattice="3.39554166 0.0 0.0 -1.69777083 2.94062534 0.0 0.0 0.0 11.83131817" Properties=species:S:1:pos:R:3:forces:R:3 energy=-54.26110229666554 pbc="T T T"
S        0.00000000       0.00000000       8.87348863      -0.03177847      -0.09642772       0.08278211
S        0.00000000       0.00000000       2.95782954      -0.00375739       0.01868651       0.00020726
Hf       1.69777085       0.98020844      10.64217214      -0.00042160      -0.00258558       0.04859193
Hf      -0.00000002       1.96041690       4.72651305       0.00295667       0.01126982       0.00979492
Hf       1.69777085       0.98020844       7.10480512       0.08030221      -0.10413693      -0.00695332
Hf      -0.00000002       1.96041690       1.18914603       0.00029879      -0.00010032      -0.01519021
6
Lattice="3.3736 0.0 0.0 -1.6868 2.9216233 0.0 0.0 0.0 11.7882" Properties=species:S:1:pos:R:3:forces:R:3 energy=-54.26253872723983 pbc="T T T"
S        0.00000000       0.00000000       8.84115000       0.03474301      -0.01494933      -0.00444087
S        0.00000000       0.00000000       2.94705000      -0.00666353      -0.02658325       0.00047623
Hf       1.68680002       0.97387442      10.60112826       0.00828002      -0.01155309       0.03267497
Hf      -0.00000002       1.94774888       4.70702826      -0.02244470      -0.01773158       0.03395331
Hf       1.68680002       0.97387442       7.08117174       0.00870340      -0.02197109      -0.04375729
Hf      -0.00000002       1.94774888       1.18707174       0.00049739      -0.00004310      -0.04680828
6
Lattice="1.693339 -2.93295 0.0 1.693339 2.93295 0.0 0.0 0.0 11.787358" Properties=species:S:1:pos:R:3:forces:R:3 energy=-54.27096310153446 pbc="T T T"
Hf       1.69333900      -0.97765196      10.60299963       0.01501724       0.00098766       0.00146237
Hf       1.69333900       0.97765196       4.70932063       0.03306947      -0.01716126       0.02977462
Hf       1.69333900      -0.97765196       7.07803737      -0.01414268      -0.02972747      -0.02822716
Hf       1.69333900       0.97765196       1.18435837      -0.00970605       0.02165213      -0.02210958
S        0.00000000       0.00000000       8.84051850       0.15711679      -0.01355456      -0.06728785
S        0.00000000       0.00000000       2.94683950       0.05696532       0.05064498       0.03670354
16
Lattice="4.57949158 0.0 1.59595068 2.28974579 6.96854132 0.79797534 -0.00351661 0.0 7.37836406" Properties=species:S:1:pos:R:3:forces:R:3 energy=-157.39820010741954 pbc="T T T"
P        1.62101142       2.03208456       2.71687137       0.00005384      -0.00018374       0.00049995
P        2.95496355       2.03208456       6.25744337       0.00043312       0.00042362      -0.00024146
P        3.91075721       4.93645676       3.51484671      -0.00229453       0.01464871       0.01295189
P        5.24470934       4.93645676       7.05541871       0.00031819       0.00009090      -0.00047824
Mo       2.15185799       0.00000000       5.16312729       0.11245922       0.03915007      -0.01995491
Mo       5.63568857       4.16738715       1.96403484      -0.00181437      -0.00028564      -0.00083832
Mo       3.34594283       2.80115417       1.16605952       0.00481063      -0.00739301      -0.00179883
Mo       0.31172294       0.00000000       3.07501911       0.01802851      -0.01948110      -0.00174571
Mo       3.09979378       4.49636084       5.84186109      -0.02301214       0.00309413       0.03194564
Mo       1.47618119       4.49636084       3.13245365      -0.00038736       0.00014975      -0.00034837
Mo       0.81004799       2.47218048       5.04388575       0.01856194      -0.02158721       0.01328771
Mo       3.76592698       2.47218048       3.93042899       0.00044513      -0.00035186      -0.00003632
Mo       3.09199884       0.00000000       2.44584757       0.00022241       0.00037776      -0.00011719
Mo       1.06228719       1.29207286       0.37020659       0.00340513       0.00110876       0.00901228
Mo       3.35203303       5.67646846       1.16818195       0.06101825      -0.08334167      -0.02129758
Mo       3.93889328       0.00000000       7.38400465       0.00002904      -0.00018341      -0.00006697
16
Lattice="4.57837207 0.0 1.59556053 2.28918603 6.96813093 0.79778027 -0.00394131 0.0 7.37778145" Properties=species:S:1:pos:R:3:forces:R:3 energy=-157.3958415844807 pbc="T T T"
P        1.62070648       2.03131023       2.71594510       0.01679782       0.05319258       0.08591526
P        2.95372427       2.03131023       6.25739688       0.01378610       0.02319912       0.01620840
P        3.90989252       4.93682070       3.51372537      -0.00777269      -0.00823194      -0.00225262
P        5.24291031       4.93682070       7.05517715      -0.07391130       0.01821584       0.00321079
Mo       2.14839840       0.00000000       5.16339862       0.00730812       0.00666263      -0.01250360
Mo       5.63645020       4.16878188       1.96430027      -0.01022959      -0.01649741      -0.00395240
Mo       3.34726416       2.79934905       1.16652000      -0.00956045       0.01672503      -0.00351874
Mo       0.30987610       0.00000000       3.07246389       0.00480247       0.00020507       0.01954506
Mo       3.09893078       4.49558137       5.84073489      -0.01425694       0.00063774       0.01427069
Mo       1.47549997       4.49558137       3.13260710       0.00181446       0.00409668      -0.00398340
Mo       0.80974475       2.47254956       5.04295462      -0.02490807       0.07170304      -0.05090267
Mo       3.76468601       2.47254956       3.93038736       0.00851264      -0.01057313      -0.00631624
Mo       3.09067478       0.00000000       2.44554523       0.01278334       0.00652448       0.02079977
Mo       1.06244239       1.29222309       0.37026068      -0.12798044      -0.04872096      -0.04649779
Mo       3.35162838       5.67590784       1.16804093      -0.00366758       0.00273869      -0.00087958
Mo       3.93724331       0.00000000       7.38283594       0.02202093      -0.01269284       0.01068326
16
Lattice="4.57674241 0.0 1.5949926 2.28837121 6.97104254 0.7974963 -0.00571432 0.0 7.38024692" Properties=species:S:1:pos:R:3:forces:R:3 energy=-157.39518994035973 pbc="T T T"
P        1.61975298       2.03173161       2.71605905      -0.00156111       0.00587005       0.00591025
P        2.95127511       2.03173161       6.25918047       0.00156851       0.00602036      -0.00596780
P        3.90812419       4.93931093       3.51355535      -0.00206344      -0.00568983       0.00605121
P        5.23964632       4.93931093       7.05667677       0.00182126      -0.00624528      -0.00526872
Mo       2.14437407       0.00000000       5.16339795       0.04541326       0.03180911      -0.00041964
Mo       5.63677959       4.17010560       1.96441506      -0.02323873      -0.01050591      -0.00851953
Mo       3.34840839       2.80093694       1.16691876       0.00169214       0.11386068       0.10204588
Mo       0.30657966       0.00000000       3.07299664       0.02361976      -0.00221911       0.03288938
Mo       3.09677554       4.49717848       5.84167511      -0.04124584      -0.06216142       0.02373316
Mo       1.47425256       4.49717848       3.13356441       0.00109094       0.00469325      -0.00440469
Mo       0.80840433       2.47386406       5.04417881      -0.00122583      -0.00430137       0.00460899
Mo       3.76262376       2.47386406       3.93106071      -0.01529874      -0.08248374       0.00105191
Mo       3.08906848       0.00000000       2.44449538      -0.06813879       0.04138245       0.03348726
Mo       1.06257128       1.29176032       0.37030560      -0.15862375       0.03939829      -0.02860265
Mo       3.35094249       5.67928222       1.16780190      -0.00089172      -0.01272064      -0.00047473
Mo       3.93355946       0.00000000       7.38512555       0.04027807      -0.00799442      -0.01434649
16
Lattice="4.57242234 0.0 1.59348705 2.28621117 6.97272651 0.79674353 -0.00842853 0.0 7.38108432" Properties=species:S:1:pos:R:3:forces:R:3 energy=-157.39393021796505 pbc="T T T"
P        1.61757466       2.03178717       2.71535874      -0.00111192       0.00293846       0.00338562
P        2.94641915       2.03178717       6.25921263       0.00007936      -0.00627615      -0.01129253
P        3.90378583       4.94093934       3.51210227      -0.00278081      -0.02040287      -0.01160447
P        5.23263032       4.94093934       7.05595616       0.00111797      -0.00276815      -0.00255094
Mo       2.13768711       0.00000000       5.16050792       0.04353427      -0.00017171       0.01970276
Mo       5.63500032       4.16957715       1.96379498      -0.03026368      -0.00039943      -0.03285610
Mo       3.34878915       2.80314936       1.16705146      -0.04504543      -0.00496991      -0.01551998
Mo       0.30115074       0.00000000       3.07344759       0.04611605       0.00002076       0.01167167
Mo       3.09217833       4.49802060       5.84096477      -0.00580995       0.02946803       0.14128379
Mo       1.47181548       4.49802060       3.13360660       0.00113310       0.00213857      -0.00188426
Mo       0.80596716       2.47470591       5.04422125       0.03994553       0.02075380      -0.06272752
Mo       3.75802665       2.47470591       3.93035013       0.00062923      -0.00265815      -0.00249562
Mo       3.08552586       0.00000000       2.44169478      -0.01765479      -0.00000773       0.03819443
Mo       1.06228048       1.29028156       0.37020425       0.00458481       0.04886872      -0.01212553
Mo       3.34849165       5.68244495       1.16694778       0.00398086      -0.04093494       0.00140814
Mo       3.92632934       0.00000000       7.38595514       0.01024659       0.00016365      -0.04016737
16
Lattice="4.57645194 0.0 1.59489137 2.28822597 6.96945771 0.79744568 -0.005338 0.0 7.37869975" Properties=species:S:1:pos:R:3:forces:R:3 energy=-157.39312571016558 pbc="T T T"
P        1.62010267       2.03022770       2.71458829      -0.00948111       0.01568084       0.01474026
P        2.95101127       2.03022770       6.25900283       0.06047056       0.16261112       0.05015392
P        3.90832864       4.93923001       3.51203397      -0.00280471      -0.00997200       0.00905807
P        5.23923724       4.93923001       7.05644851      -0.10316161       0.05830774       0.06081567
Mo       2.13938750       0.00000000       5.15608745       0.04057496      -0.00249530       0.05398447
Mo       5.64291693       4.16484332       1.96655392      -0.03286197       0.04435873      -0.02285914
Mo       3.35469100       2.80461439       1.16910825      -0.06276036      -0.03222124      -0.03587190
Mo       0.29879641       0.00000000       3.07417855       0.06660065       0.01272470      -0.02787201
Mo       3.09699506       4.49562876       5.84011048       0.02223669       0.01810743      -0.01264426
Mo       1.47411888       4.49562876       3.13348063       0.00854310       0.00500418      -0.01238657
Mo       0.80876909       2.47382895       5.04266480       0.04710165       0.06660482       0.10605617
Mo       3.76234485       2.47382895       3.93092632       0.00151990      -0.00578026      -0.00498738
Mo       3.08678736       0.00000000       2.44193972       0.00953838       0.00778293       0.02167169
Mo       1.06510908       1.29009771       0.37119002      -0.02165814       0.01761369      -0.00764688
Mo       3.35333505       5.67936000       1.16863570       0.07483964      -0.08842850      -0.04750282
Mo       3.93056037       0.00000000       7.38416273       0.02730111       0.00010432      -0.00957483
16
Lattice="4.58141158 0.0 1.5966198 2.29070579 6.96543447 0.7983099 -0.00153418 0.0 7.37576482" Properties=species:S:1:pos:R:3:forces:R:3 energy=-157.39007829526741 pbc="T T T"
P        1.62321399       2.02830875       2.71364044      -0.07360723       0.01017269      -0.03924288
P        2.95666341       2.02830875       6.25874418       0.00604446       0.01747596      -0.01626052
P        3.91391978       4.93712572       3.51195034      -0.03135798      -0.02321021       0.03947680
P        5.24736920       4.93712572       7.05705408       0.02145014       0.00263482      -0.00716951
Mo       2.14147543       0.00000000       5.15064728       0.05355960      -0.01291726       0.10512864
Mo       5.65266502       4.15901906       1.96995113      -0.08770154       0.08260820      -0.03027251
Mo       3.36195923       2.80641541       1.17164123      -0.08766387      -0.08264445      -0.03061302
Mo       0.29589509       0.00000000       3.07507469       0.15165578       0.00577786      -0.05665024
Mo       3.10292340       4.49268517       5.83905928      -0.02457129      -0.14776242       0.03037174
Mo       1.47695400       4.49268517       3.13332534      -0.00549957       0.00500073      -0.01240518
Mo       0.81221761       2.47274930       5.04074938      -0.00305219      -0.00805313       0.00812999
Mo       3.76765979       2.47274930       3.93163524       0.00246009      -0.00821746      -0.00828589
Mo       3.08833737       0.00000000       2.44223989       0.05442391       0.01435227       0.02140520
Mo       1.06859325       1.28987107       0.37240425      -0.05603893      -0.01219327      -0.01930732
Mo       3.35929908       5.67556340       1.17071416      -0.04020461       0.01510169       0.00288930
Mo       3.93576507       0.00000000       7.38195602       0.04945265      -0.08246533       0.06434620
16
Lattice="4.63950661 0.0 1.61686589 2.3197533 7.06533558 0.80843294 -0.00536291 0.0 7.48022441" Properties=species:S:1:pos:R:3:forces:R:3 energy=-157.0791087532277 pbc="T T T"
P        1.64216596       2.05898610       2.75273208       0.00832251      -0.03834612      -0.03625132
P        2.99197774       2.05898610       6.34435821      -0.00645538      -0.06898209       0.16680216
P        3.96191926       5.00634948       3.56116503       0.00193585       0.05374735      -0.05652076
P        5.31173104       5.00634948       7.15279116       0.10660388       0.08654422      -0.01188082
Mo       2.16774276       0.00000000       5.22461026       0.09972420      -0.00039359       0.21423149
Mo       5.72244792       4.22021799       1.99427043      -0.15094230       0.14505266      -0.04479131
Mo       3.40269462       2.84511759       1.18583749      -0.15619867      -0.16960816      -0.05455998
Mo       0.30051831       0.00000000       3.11767096       0.21141816       0.00044999      -0.10593063
Mo       3.13982892       4.55707376       5.92010747      -0.03702083       0.02310118       0.05904785
Mo       1.49431477       4.55707376       3.17698283       0.01149498       0.03491303      -0.03240138
Mo       0.82007562       2.50826182       5.11167452      -0.01115273      -0.03496317       0.03252432
Mo       3.81406808       2.50826182       3.98541577       0.01145573      -0.03438448      -0.03311196
Mo       3.12966851       0.00000000       2.47591583      -0.12942772       0.09506226      -0.03264911
Mo       1.07936824       1.30806966       0.37615933      -0.01472571      -0.01294138      -0.00294260
Mo       3.39912155       5.75726592       1.18459227      -0.00688421       0.02200619      -0.00291205
Mo       3.98524531       0.00000000       7.48572170      -0.00007405      -0.00011556       0.02383295
16
Lattice="4.55813274 0.0 1.58850713 2.27906637 6.92540381 0.79425357 0.0 0.0 7.33390757" Properties=species:S:1:pos:R:3:forces:R:3 energy=-157.33528877419735 pbc="T T T"
P        1.61563015       2.01598505       2.69794685      -0.01548978       0.04571825       0.04334099
P        2.94250259       2.01598505       6.22446786      -0.03712632      -0.02966082      -0.00359009
P        3.89469652       4.90941876       3.49220041      -0.00030975      -0.04849557       0.06283355
P        5.22156896       4.90941876       7.01872142       0.00068433      -0.03573755      -0.07002059
Mo       2.13092706       0.00000000       5.12096990       0.04006637       0.00043358       0.06179933
Mo       5.62473580       4.13446607       1.96021780       0.02031524       0.02322402       0.01806484
Mo       3.34566943       2.79093774       1.16596424      -0.05511384      -0.04447334      -0.01907594
Mo       0.29399956       0.00000000       3.05802346       0.07034207       0.00005048      -0.02322927
Mo       3.08813493       4.46688546       5.80658397       0.00034107      -0.00119923      -0.00175343
Mo       1.46999781       4.46688546       3.11583074      -0.00028084      -0.00093539       0.00113643
Mo       0.80906856       2.45851835       5.01233040       0.00045334       0.00185974      -0.00142489
Mo       3.74906418       2.45851835       3.91008430      -0.01862672       0.00172904       0.01821971
Mo       3.07172565       0.00000000       2.42873464       0.08379589      -0.00013821       0.01948367
Mo       1.06432399       1.28258479       0.37091642      -0.09167260      -0.00736181      -0.03828050
Mo       3.34339036       5.64281902       1.16516998      -0.08071004       0.00912855      -0.02837364
Mo       3.91589184       0.00000000       7.34035436       0.07782809      -0.00033283       0.03668913
16
Lattice="-4.927503 4.927503 2.424809 4.927503 -4.927503 2.424809 4.927503 4.927503 -2.424809" Properties=species:S:1:pos:R:3:forces:R:3 energy=-157.3996301453341 pbc="T T T"
Mo       1.98071331       1.98071331       3.54330792      -0.03439970      -0.03415254       0.01311163
Mo       1.98071331      -1.98071331       1.30631008      -0.03534794       0.06924195      -0.02256889
Mo      -1.98071331       1.98071331       1.30631008       0.04070481      -0.02372950      -0.02470662
Mo       2.94678969       2.94678969       1.11849892       0.03422432       0.03490283       0.01312002
Mo       3.49619149       0.00000000       0.00000000       0.04392024      -0.00045180       0.00013904
Mo       0.00000000       6.35881451       0.00000000      -0.00039645      -0.04347283      -0.00010905
Mo       0.00000000       3.49619149       0.00000000       0.02655396       0.03687431       0.07514993
Mo       6.35881451       0.00000000       0.00000000      -0.05683720       0.00041195      -0.10247254
Mo       4.01387003       4.01387003      -1.29986009      -0.00691472      -0.00621285      -0.03533500
Mo      -0.91363297       0.91363297       3.72466909      -0.00627428       0.00673764       0.03502452
Mo       0.91363297      -0.91363297       3.72466909       0.00641667      -0.00651726       0.03491971
Mo       0.91363297       0.91363297       1.12494891       0.05224249      -0.02376728       0.02287758
P        2.05370441       4.92750300      -0.00000000      -0.01854225      -0.06154447       0.05059860
P        0.00000000       2.87379859       2.42480900       0.00023116       0.02540773      -0.00027240
P        4.92750300       2.05370441      -0.00000000      -0.00038136      -0.02572013       0.00032119
P        2.87379859       0.00000000       2.42480900       0.00048134      -0.00367516       0.00799108
4
Lattice="3.46309859 0.0 -0.86375273 -0.21543389 3.45639119 -0.86375273 0.60374777 0.64255047 9.79493092" Properties=species:S:1:pos:R:3:forces:R:3 energy=-11.648463905538785 pbc="T T T"
Ag       2.84533936       1.18537303       4.03371273       0.00040378      -0.00019430      -0.00022183
Te       1.62733089       1.73191899       6.52456085       0.00038506       0.00090351       0.00352858
Te       2.22408158       2.36702267       1.54286461      -0.00092419      -0.00040458      -0.00313547
Tl       0.00000000       0.00000000       0.00000000       0.00543578       0.00089061       0.01619584
4
Lattice="3.48604339 0.0 -0.86947554 -0.21686125 3.47929155 -0.86947554 0.56853266 0.60507209 9.70259916" Properties=species:S:1:pos:R:3:forces:R:3 energy=-11.639987838494708 pbc="T T T"
Ag       2.84458356       1.17235893       3.98182404      -0.06353863       0.02792301       0.03978879
Te       1.61194672       1.71554608       6.46288025      -0.00505878      -0.00538417      -0.01883062
Te       2.22576808       2.36881756       1.50076783       0.00491432       0.00479312       0.01855187
Tl       0.00000000       0.00000000       0.00000000       0.00001000       0.00028569      -0.00041022
4
Lattice="3.48907542 0.0 -0.87023178 -0.21704986 3.48231771 -0.87023178 0.56395292 0.60019801 9.6906937" Properties=species:S:1:pos:R:3:forces:R:3 energy=-11.635503574410897 pbc="T T T"
Ag       2.84452056       1.17067843       3.97511507      -0.00124503      -0.00817578       0.00562197
Te       1.60870406       1.71209501       6.44987916       0.00189351       0.00130751       0.00615620
Te       2.22727442       2.37042071       1.50035098      -0.01314992       0.00323390      -0.02339016
Tl       0.00000000       0.00000000       0.00000000       0.00024429      -0.00031835      -0.00029829
4
Lattice="3.4918826 0.0 -0.87093193 -0.21722449 3.48511945 -0.87093193 0.56515008 0.60147212 9.70147115" Properties=species:S:1:pos:R:3:forces:R:3 energy=-11.63551405642224 pbc="T T T"
Ag       2.84718087       1.17201592       3.97980364       0.03935086      -0.03014122      -0.06279344
Te       1.60980411       1.71326577       6.45428968       0.00284864       0.00247145       0.01093245
Te       2.23000408       2.37332580       1.50531761       0.03304485       0.00489396      -0.01849970
Tl       0.00000000       0.00000000       0.00000000       0.00030189      -0.00035518      -0.00018086
4
Lattice="3.49702815 0.0 -0.87221531 -0.21754459 3.49025504 -0.87221531 0.56085703 0.59690315 9.69521562" Properties=species:S:1:pos:R:3:forces:R:3 energy=-11.63457015477755 pbc="T T T"
Ag       2.84881348       1.17101534       3.97539250       0.00886662       0.01794182      -0.00010590
Te       1.60988019       1.71334673       6.45459469      -0.00380605      -0.00415878      -0.01427451
Te       2.23046040       2.37381146       1.49619031       0.02494100       0.00237774       0.02553680
Tl       0.00000000       0.00000000       0.00000000      -0.02153677       0.15742498       0.02838084
4
Lattice="3.52031426 0.0 -0.87802325 -0.21899318 3.51349605 -0.87802325 0.54142888 0.57622636 9.66690632" Properties=species:S:1:pos:R:3:forces:R:3 energy=-11.624764548831038 pbc="T T T"
Ag       2.85620184       1.16648719       3.95542991       0.00040559       0.00013265      -0.00026058
Te       1.61021638       1.71370453       6.45594252      -0.03696388      -0.03866143      -0.14725742
Te       2.23253358       2.37601788       1.45491730       0.03704459       0.03871506       0.14698047
Tl       0.00000000       0.00000000       0.00000000      -0.01828482      -0.01624159       0.00600722
4
Lattice="3.52158219 0.0 -0.87833949 -0.21907206 3.51476152 -0.87833949 0.5237833 0.5574467 9.59885867" Properties=species:S:1:pos:R:3:forces:R:3 energy=-11.621213423406092 pbc="T T T"
Ag       2.84831028       1.15741373       3.92108985       0.06471896       0.02694205       0.03854325
Te       1.60077321       1.70365445       6.41808149      -0.04288772      -0.04543686      -0.17020417
Te       2.22552022       2.36855377       1.42409820       0.14254197       0.03235580       0.18235683
Tl       0.00000000       0.00000000       0.00000000      -0.00488853       0.01526368      -0.10253297
4
Lattice="3.52221615 0.0 -0.87849761 -0.2191115 3.51539426 -0.87849761 0.51496051 0.54805687 9.56483485" Properties=species:S:1:pos:R:3:forces:R:3 energy=-11.618245878542783 pbc="T T T"
Ag       2.84436449       1.15287700       3.90391982       0.04456289       0.11801255       0.03130165
Te       1.59603954       1.69861655       6.39910251      -0.03767001      -0.05346015      -0.18866835
Te       2.22202562       2.36483458       1.40873712       0.02258753       0.06452436       0.19914715
Tl       0.00000000       0.00000000       0.00000000      -0.00702315      -0.00705993       0.00666121
4
Lattice="3.52525594 0.0 -0.87925578 -0.2193006 3.51842816 -0.87925578 0.47265626 0.50303375 9.40169466" Properties=species:S:1:pos:R:3:forces:R:3 energy=-11.600219345843763 pbc="T T T"
Ag       2.82544493       1.13112391       3.82159155      -0.00009181      -0.00047239      -0.00013572
Te       1.57331313       1.67442952       6.30798414      -0.09043196      -0.00748730      -0.28972359
Te       2.20529847       2.34703239       1.33519896       0.06324548       0.04369440       0.26160236
Tl       0.00000000       0.00000000       0.00000000       0.00034741      -0.00024125      -0.00026666
4
Lattice="3.47710578 0.0 -0.86724635 -0.21630525 3.47037126 -0.86724635 0.53041971 0.56450964 9.53075887" Properties=species:S:1:pos:R:3:forces:R:3 energy=-11.601523630926868 pbc="T T T"
Ag       2.81896288       1.14984763       3.89813308      -0.01432771       0.02492591      -0.00167014
Te       1.59926012       1.70204412       6.41201498      -0.07288383      -0.07821462      -0.29300801
Te       2.19196012       2.33283678       1.38425119       0.07332237       0.07811404       0.29314745
Tl       0.00000000       0.00000000       0.00000000       0.00018348      -0.00026909      -0.00037937
4
Lattice="3.71509624 0.0 -0.92660502 -0.23111026 3.70790077 -0.92660502 0.2449139 0.26065445 8.89283677" Properties=species:S:1:pos:R:3:forces:R:3 energy=-11.57108614427352 pbc="T T T"
Ag       2.85100157       1.05730242       3.51981337       0.03556087      -0.01855138       0.09843938
Te       1.47102039       1.56556245       5.89785537      -0.02715917      -0.00782468      -0.07212566
Te       2.25787949       2.40299277       1.14177136       0.02047786       0.02634031       0.09292668
Tl       0.00000000       0.00000000       0.00000000      -0.00110498       0.00276208      -0.00956531
4
Lattice="3.83409147 0.0 -0.95628435 -0.23851277 3.82666553 -0.95628435 0.10216099 0.10872685 8.57387572" Properties=species:S:1:pos:R:3:forces:R:3 energy=-11.500201482081174 pbc="T T T"
Ag       2.86702090       1.01102981       3.33065351      -0.00021632      -0.00044487       0.00007281
Te       1.40687967       1.49729944       5.64069197       0.06288613      -0.04703389      -0.00888606
Te       2.29086002       2.43809294       1.02061505       0.01458013       0.01485912       0.05707980
Tl       0.00000000       0.00000000       0.00000000      -0.00547283       0.00634938       0.00545284
4
Lattice="3.87375655 0.0 -0.96617746 -0.24098027 3.86625378 -0.96617746 0.05457669 0.05808432 8.46755537" Properties=species:S:1:pos:R:3:forces:R:3 energy=-11.468340523608774 pbc="T T T"
Ag       2.87236069       0.99560561       3.26760022       0.00024625       0.00019117      -0.00039092
Te       1.38549582       1.47454124       5.55495623      -0.01985936      -0.02825147      -0.05414778
Te       2.30185715       2.44979686       0.98024422       0.12178438       0.08917991       0.01616082
Tl       0.00000000       0.00000000       0.00000000       0.00041269       0.00015251       0.00023754
4
Lattice="3.80348053 0.0 -0.94864949 -0.23660851 3.79611388 -0.94864949 0.0 0.0 8.09909254" Properties=species:S:1:pos:R:3:forces:R:3 energy=-11.3278297196819 pbc="T T T"
Ag       2.79345827       0.94902847       3.10089678       0.00039745      -0.00015838       0.00025875
Te       1.31617578       1.40076602       5.27702697       0.10163493       0.10761538       0.40576838
Te       2.25069624       2.39534786       0.92476659      -0.10086911      -0.10799828      -0.40588389
Tl       0.00000000       0.00000000       0.00000000      -0.00259193       0.02319987       0.01410623
4
Lattice="3.52180028 -0.0 -0.87839356 -0.2190856 3.51497972 -0.87839357 0.51918944 0.55255715 9.58090538" Properties=species:S:1:pos:R:3:forces:R:3 energy=-11.566198264892613 pbc="T T T"
Tl       0.00000000       0.00000000       0.00000000       0.00006648       0.00040754      -0.00028195
Ag       2.84617353       1.15502350       3.91205913      -0.00034289       0.00027323      -0.00024036
Te       1.58867289       1.69077631       6.36956768       0.02572187       0.02135883       0.02801564
Te       2.23323123       2.37676056       1.45455057      -0.03089400       0.00434355      -0.02270627
4
Lattice="-1.784595 1.784595 9.505182 1.784595 -1.784595 9.505182 1.784595 1.784595 -9.505182" Properties=species:S:1:pos:R:3:forces:R:3 energy=-11.707274950408877 pbc="T T T"
Tl       0.00000000       0.00000000       0.00000000      -0.00326214       0.00679061       0.00657617
Ag      -0.00000000       1.78459500       4.75259100      -0.00791357       0.00280108       0.01189677
Te       0.00000000       0.00000000       6.94389665       0.07217411       0.02553180       0.11179922
Te       0.00000000       0.00000000      12.06646735       0.03213354      -0.00691828      -0.09500247
6
Lattice="4.16230789 -0.01560623 0.93893867 1.76134177 3.77130292 0.93893867 0.00957464 0.00607049 7.33777768" Properties=species:S:1:pos:R:3:forces:R:3 energy=-40.247577462975165 pbc="T T T"
N        1.40626214       1.67871019       3.88920635       0.00305268      -0.00163108      -0.00184061
N        3.81025934       3.20288613       1.65755983       0.00018768      -0.00370473       0.00198329
N        2.12296496       0.55888105       7.55809519      -0.00031896       0.00386626      -0.00180394
N        4.52696216       2.08305699       5.32644867      -0.00306086       0.00120694       0.00161610
Ba       3.65677940       0.78702850       2.77338309       0.11157924       0.06538244       0.08902292
Ba       2.27644490       2.97473868       6.44227193       0.00009714      -0.00082989       0.00027468
6
Lattice="4.16180416 -0.0137754 0.93944576 1.76278281 3.77006636 0.93944576 0.01047134 0.00663901 7.3377828" Properties=species:S:1:pos:R:3:forces:R:3 energy=-40.2479611637436 pbc="T T T"
N        1.40732244       1.67734105       3.89025024      -0.01522835       0.03121964      -0.07595522
N        3.81243105       3.20222165       1.65753268       0.06143990       0.05334224       0.13932084
N        2.12262726       0.56070832       7.55914164      -0.05432233      -0.05403903       0.10775461
N        4.52773587       2.08558892       5.32642408      -0.02142617       0.00234614       0.00243003
Ba       3.65857177       0.78573353       2.77389146      -0.00529449       0.00810718       0.00000026
Ba       2.27648654       2.97719644       6.44278286       0.00575882      -0.00891267      -0.00020631
6
Lattice="4.16131016 -0.01243959 0.93925382 1.76378028 3.76904977 0.93925382 0.01026237 0.00650652 7.33721209" Properties=species:S:1:pos:R:3:forces:R:3 energy=-40.24777167307931 pbc="T T T"
N        1.40821176       1.67549561       3.89031102      -0.03923336       0.03111069      -0.00059298
N        3.81411982       3.20088308       1.65680267      -0.01992483       0.07375686      -0.01843152
N        2.12123299       0.56223362       7.55891706       0.12256744      -0.00619257      -0.04642392
N        4.52714105       2.08762109       5.32540871       0.03934717      -0.05421702      -0.01950727
Ba       3.65980099       0.78423588       2.77355684      -0.00751650       0.01222942      -0.00041806
Ba       2.27555182       2.97888082       6.44216289      -0.02957405       0.05244994      -0.02853435
6
Lattice="4.16158943 -0.01014051 0.94263676 1.76597884 3.76832167 0.94263676 0.01525621 0.0096727 7.34157433" Properties=species:S:1:pos:R:3:forces:R:3 energy=-40.24424150408057 pbc="T T T"
N        1.41117401       1.67453301       3.89526551      -0.02843084       0.05663512      -0.00617109
N        3.81870164       3.20094731       1.66079518       0.05565641       0.10244697      -0.01351843
N        2.12412284       0.56690655       7.56605267       0.01773333      -0.05154089       0.00599346
N        4.53165047       2.09332085       5.33158234       0.05732390      -0.02784332      -0.02576202
Ba       3.66052005       0.78860198       2.77803034       0.00728557      -0.01177531      -0.00024205
Ba       2.28230443       2.97925188       6.44881751      -0.00702480       0.01089080       0.00011286
6
Lattice="4.16284288 -0.00980289 0.94495628 1.76681886 3.76931134 0.94495628 0.01843712 0.01168946 7.34564168" Properties=species:S:1:pos:R:3:forces:R:3 energy=-40.24390442003117 pbc="T T T"
N        1.41240618       1.67554624       3.89872386       0.01136679       0.02876532      -0.01284959
N        3.82094355       3.20260072       1.66400954       0.02408062      -0.06473596       0.04067614
N        2.12715531       0.56859719       7.57154470       0.02635073       0.00511755      -0.02229714
N        4.53569268       2.09565167       5.33683038      -0.01546803      -0.02178294       0.02255278
Ba       3.66046225       0.79276621       2.78136670       0.01774694      -0.02862350      -0.00028183
Ba       2.28763661       2.97843170       6.45418754      -0.01832383       0.02857725      -0.00046777
6
Lattice="4.16698232 -0.01300833 0.94518016 1.76568538 3.77442261 0.94518016 0.01735271 0.01100192 7.35219222" Properties=species:S:1:pos:R:3:forces:R:3 energy=-40.243289202371585 pbc="T T T"
N        1.41092290       1.67741746       3.90097764      -0.01764049       0.04217637      -0.00494236
N        3.82234756       3.20630254       1.66547879      -0.03074465       0.03461638       0.00525374
N        2.12767285       0.56611366       7.57707375       0.03043045      -0.03386116      -0.00514514
N        4.53909751       2.09499874       5.34157490       0.01814856      -0.04235568       0.00566844
Ba       3.65892818       0.79790981       2.78322822       0.11717641      -0.08259878       0.04131656
Ba       2.29109223       2.97450639       6.45932433      -0.00724918       0.07028222       0.00939069
6
Lattice="4.16035299 -0.00749479 0.94559042 1.76784438 3.7660748 0.94559042 0.02028073 0.01285834 7.34244225" Properties=species:S:1:pos:R:3:forces:R:3 energy=-40.2437957777534 pbc="T T T"
N        1.41365297       1.67467023       3.89837753       0.08313388      -0.00925115      -0.05569212
N        3.82066147       3.20075539       1.66402444      -0.03376984      -0.07683341       0.08012958
N        2.12781663       0.57068296       7.56959865       0.03594190       0.07094610      -0.17110451
N        4.53482513       2.09676812       5.33524556       0.00786490      -0.12407856       0.05190680
Ba       3.66143209       0.79063664       2.78120098       0.02219528      -0.01622171       0.00533711
Ba       2.28704601       2.98080171       6.45242211      -0.01916437       0.02122699       0.00508765
6
Lattice="4.15703832 -0.00473802 0.94579555 1.76892387 3.7619009 0.94579555 0.02174474 0.01378654 7.33756727" Properties=species:S:1:pos:R:3:forces:R:3 energy=-40.24287486738221 pbc="T T T"
N        1.41501667       1.67329872       3.89707666       0.13359413      -0.03453537      -0.08095800
N        3.81981708       3.19798392       1.66329808      -0.02515285      -0.13541768       0.08096604
N        2.12788985       0.57296550       7.56586029      -0.01270415      -0.02410141      -0.04295739
N        4.53269026       2.09765070       5.33208171      -0.13275109       0.04472318       0.07909170
Ba       3.66267205       0.78701898       2.78018737      -0.01340861      -0.02238011       0.00513516
Ba       2.28503488       2.98393044       6.44897100       0.02163237       0.01955784       0.01916464
6
Lattice="4.15495292 -0.0028334 0.94557814 1.769757 3.75920231 0.94557814 0.0221549 0.01404659 7.33405911" Properties=species:S:1:pos:R:3:forces:R:3 energy=-40.2425656640767 pbc="T T T"
N        1.41638376       1.67205565       3.89571653       0.08998849      -0.02135979      -0.06094469
N        3.81931106       3.19555326       1.66246930      -0.00113524      -0.08982164       0.04740973
N        2.12755376       0.57486224       7.56274609       0.01856720       0.09074815      -0.06134646
N        4.53048106       2.09835985       5.32949886      -0.09018432       0.02203569       0.06123386
Ba       3.66405240       0.78368402       2.77909292       0.01725547       0.00867994       0.01099719
Ba       2.28281242       2.98673148       6.44612247       0.00717547      -0.01120304      -0.00022855
6
Lattice="4.15234793 -0.00021459 0.94481887 1.77101443 3.75572912 0.94481887 0.0219481 0.01391547 7.32905593" Properties=species:S:1:pos:R:3:forces:R:3 energy=-40.24149402697976 pbc="T T T"
N        1.41880787       1.66996760       3.89325528      -0.07058079       0.03702658       0.01313748
N        3.81871464       3.19155014       1.66091042      -0.13909071       0.11694270      -0.10851464
N        2.12659582       0.57787986       7.55778325       0.00340499      -0.07999088       0.01401506
N        4.52650259       2.09946240       5.32543839       0.07094918      -0.03694459      -0.01385710
Ba       3.66662424       0.77802337       2.77708285      -0.02088650       0.03346758       0.00016050
Ba       2.27868622       2.99140663       6.44161082       0.02096625      -0.03293530      -0.00049420
6
Lattice="4.1545393 -0.00013648 0.94218792 1.77201982 3.75767782 0.94218792 0.01707986 0.01082893 7.33009409" Properties=species:S:1:pos:R:3:forces:R:3 energy=-40.240572457967595 pbc="T T T"
N        1.41697812       1.67009968       3.89315237       0.00568909      -0.00299888      -0.02005708
N        3.82013831       3.19374495       1.65627052       0.07179262      -0.04989401       0.00507173
N        2.12350067       0.57462532       7.55819941      -0.00046813       0.00546313      -0.01991162
N        4.52666086       2.09827059       5.32131756      -0.01193701      -0.00110604       0.00555693
Ba       3.67197662       0.77042456       2.77471144      -0.05681656       0.08985671       0.00031395
Ba       2.27166236       2.99794571       6.43975849       0.04017952      -0.11017601       0.02346624
6
Lattice="4.15877089 -0.00051985 0.93855748 1.77347809 3.76166865 0.93855748 0.010037 0.00636363 7.33297696" Properties=species:S:1:pos:R:3:forces:R:3 energy=-40.237030795727 pbc="T T T"
N        1.41597455       1.67003844       3.89288489      -0.12199442       0.03464771       0.03353653
N        3.82279020       3.19600133       1.65071855       0.12185710       0.15624686      -0.00423660
N        2.11949578       0.57151110       7.55937337      -0.01643423      -0.11702367       0.03710043
N        4.52631143       2.09747399       5.31720703       0.04253793       0.01717125       0.01470248
Ba       3.67964294       0.76073039       2.77180172      -0.10741167       0.13511473       0.02034857
Ba       2.26264304       3.00678204       6.43829020       0.09468669      -0.14951689       0.00002616
6
Lattice="4.11752124 -0.00135073 0.92266185 1.75513131 3.72471436 0.92266185 -0.00116212 -0.00073681 7.25795678" Properties=species:S:1:pos:R:3:forces:R:3 energy=-40.21775163211263 pbc="T T T"
N        1.40284521       1.64849785       3.84550938      -0.37339887       0.13602274       0.21135042
N        3.78267724       3.15735266       1.62879271       0.03339034       0.37366914      -0.17893505
N        2.08881319       0.56527416       7.47448777       0.11710375      -0.37402163       0.15227302
N        4.46864522       2.07412897       5.25777110       0.34984921      -0.12168604      -0.15662812
Ba       3.64317340       0.74616907       2.73715105      -0.07039215       0.06685750      -0.01301438
Ba       2.22831703       2.97645775       6.36612943       0.04403952      -0.08969802      -0.02893840
6
Lattice="4.16976752 -0.00704533 0.92988978 1.77226672 3.77439816 0.92988978 -0.00606158 -0.00384315 7.33661288" Properties=species:S:1:pos:R:3:forces:R:3 energy=-39.993341523911475 pbc="T T T"
N        1.43504996       1.65997570       3.87754215      -2.85940061       1.16306928       1.39140609
N        3.82549080       3.17555668       1.65054385       0.17346532       3.07352717      -1.31825223
N        2.11048186       0.58795300       7.54584859      -0.17346573      -3.07372864       1.31930391
N        4.50092270       2.10353398       5.31885029       2.85752017      -1.15413752      -1.31817099
Ba       3.68467324       0.75471572       2.76404300      -0.03723228       0.02839705       0.00990308
Ba       2.25129942       3.00879396       6.43234944       0.13533470      -0.02984277       0.10227983
6
Lattice="3.502572 2.24482 -0.938558 3.502572 -2.24482 -0.938558 -0.00149 0.0 -7.331931" Properties=species:S:1:pos:R:3:forces:R:3 energy=-40.24951480337783 pbc="T T T"
Ba       3.50219950       1.29643294      -2.77154075      -0.02541840      -0.03283313      -0.00740308
Ba       3.50145450      -1.29643294      -6.43750625       0.01301575       0.04055726       0.00109418
N        2.08876889      -0.67243134      -3.88842106      -0.01555009      -0.05358243      -0.07569525
N        4.91563011      -0.67243134      -1.65466044       0.04660234       0.05236644      -0.00277610
N        4.91488511       0.67243134      -5.32062594       0.05763108      -0.03798513      -0.04140063
N        2.08802389       0.67243134      -7.55438656      -0.05644364      -0.03450255       0.01312900
6
Lattice="3.50851824 2.22399777 -0.94560195 3.50851824 -2.22399777 -0.94560195 0.01014983 0.0 -7.34351525" Properties=species:S:1:pos:R:3:forces:R:3 energy=-40.23347672236424 pbc="T T T"
Ba       3.51105570       1.29529153      -2.78148076       0.00007649      -0.06464053       0.00049392
Ba       3.51613061      -1.29529153      -6.45323839      -0.00026270       0.06447226       0.00038448
N        2.10706618      -0.67842216      -3.88741133       0.13067984       0.22870053       0.06677401
N        4.91504521      -0.67842216      -1.67555019      -0.07594733       0.28157367      -0.02738195
N        4.92012013       0.67842216      -5.34730782      -0.07573674      -0.28235408      -0.02786620
N        2.11214110       0.67842216      -7.55916896       0.07552569      -0.28154069       0.02784966
6
Lattice="3.51753121 2.22138323 -0.95148863 3.51753121 -2.22138323 -0.95148863 0.01818968 0.0 -7.35950043" Properties=species:S:1:pos:R:3:forces:R:3 energy=-40.22534923082719 pbc="T T T"
Ba       3.52207863       1.29970223      -2.79136374       0.03336992      -0.10028779      -0.00461262
Ba       3.53117347      -1.29970223      -6.47111395      -0.01619431       0.09452525       0.03276042
N        2.12200420      -0.68072936      -3.89238007      -0.19291832      -0.00262714      -0.22529043
N        4.92215306      -0.68072936      -1.69034740       0.20786272      -0.00794858       0.19884627
N        4.93124790       0.68072936      -5.37009762       0.21618724      -0.01451170       0.18676829
N        2.13109904       0.68072936      -7.57213029      -0.23624115      -0.14602258      -0.15772961
6
Lattice="3.56348706 2.25022595 -0.96458727 3.56348706 -2.25022595 -0.96458727 0.02094156 0.0 -7.45151991" Properties=species:S:1:pos:R:3:forces:R:3 energy=-40.18182225877434 pbc="T T T"
Ba       3.56872245       1.33288115      -2.82746725       0.02447557      -0.34053052       0.01920831
Ba       3.57919323      -1.33288115      -6.55322720      -0.03197207       0.22981036      -0.01574443
N        2.14924008      -0.70301170      -3.94214123       0.01254347       0.31675629      -0.01882507
N        4.98820482      -0.70301170      -1.71279327      -0.02112088       0.31209081       0.02131501
N        4.99867560       0.70301170      -5.43855322      -0.01214027      -0.31620966       0.01823010
N        2.15971086       0.70301170      -7.66790118       0.00322145      -0.44161003       0.02827710
6
Lattice="3.54630578 2.23167857 -0.97963915 3.54630578 -2.23167857 -0.97963915 0.05769211 0.0 -7.43159582" Properties=species:S:1:pos:R:3:forces:R:3 energy=-39.186328957119954 pbc="T T T"
Ba       3.56072881       1.32598963      -2.83753811      -0.09605562      -0.55420451      -0.01461457
Ba       3.58957486      -1.32598963      -6.55333602      -0.00394188       0.55498930      -0.00431541
N        2.12863953      -0.73102068      -3.96204129       5.40874134       5.18696140       2.92541030
N        4.99281808      -0.73102068      -1.71303492      -6.05245605       7.50748941      -4.49847776
N        5.02166414       0.73102068      -5.42883283      -6.16772668      -7.65749266      -3.97003028
N        2.15748559       0.73102068      -7.67783920       6.05541727      -7.50525092       4.49943440
6
Lattice="3.623429 2.292888 -0.968719 3.623429 -2.292888 -0.968719 0.0 0.0 -7.562143" Properties=species:S:1:pos:R:3:forces:R:3 energy=-39.87100505250609 pbc="T T T"
Ba       3.62342900       1.37270619      -2.85925475       0.00037480      -0.42928152       0.00016500
Ba       3.62342900      -1.37270619      -6.64032625      -0.00011046       0.42944703      -0.00018207
N        2.19072517      -0.70941955      -3.98260214      -1.76773517      -1.72533569      -1.34081904
N        5.05613283      -0.70941955      -1.73590736       1.76866620      -1.72607656       1.34112913
N        5.05613283       0.70941955      -5.51697886       1.76881820       1.72676506       1.34297644
N        2.19072517       0.70941955      -7.76367364      -1.79320453       1.75462331      -1.34880999
6
Lattice="2.241948 3.630472 0.0 -2.241948 3.630472 0.0 0.0 1.9087 7.085194" Properties=species:S:1:pos:R:3:forces:R:3 energy=-40.257214657038276 pbc="T T T"
Ba      -1.29338429       4.10764700       1.77129850       0.00763839      -0.02597606       0.02137856
Ba       1.29338429       5.06199700       5.31389550       0.00022944       0.00010891      -0.00047810
N        0.66476449       3.02142393       3.21724489       0.00238911       0.00164677      -0.00934080
N        0.66476449       5.19387007       0.32535211      -0.00115333      -0.00719890      -0.03523676
N       -0.66476449       3.97577393       6.75984189       0.02814284       0.01284032       0.00930686
N       -0.66476449       6.14822007       3.86794911      -0.03476041       0.00479723      -0.12961580
14
Lattice="-5.52149002 -5.52149002 0.0 -5.52149002 -0.0 -5.52149002 0.0 -5.52149002 -5.52149002" Properties=species:S:1:pos:R:3:forces:R:3 energy=-84.78033543919356 pbc="T T T"
Y        0.00000000      -2.76074501      -2.76074501       0.00037933      -0.00015231      -0.00028793
Y       -2.76074501       0.00000000      -2.76074501       0.07769973      -0.06063685       0.01256060
Y       -2.76074501      -2.76074501       0.00000000      -0.04422559       0.10941554       0.09085940
Y        0.00000000       0.00000000       0.00000000       0.00941749       0.03142503       0.01552427
Zn      -4.14111751      -4.14111751      -4.14111751      -0.00049354       0.00002368       0.00007653
Zn      -6.90186253      -6.90186253      -6.90186253      -0.04616217      -0.10732113      -0.05859129
S       -2.74069228      -5.54154275      -5.54154275      -0.02449911       0.02410746       0.02402894
S       -5.54154275      -2.74069228      -5.54154275      -0.05055823       0.00724985      -0.02101773
S       -5.54154275      -5.54154275      -2.74069228       0.02426808       0.02358537      -0.02406695
S       -2.74069228      -2.74069228      -2.74069228      -0.04609944      -0.01635719      -0.03903572
S       -8.30228776      -5.50143729      -5.50143729       0.01739081      -0.01342544      -0.01896960
S       -5.50143729      -8.30228776      -5.50143729      -0.02411743       0.02414803      -0.02354124
S       -5.50143729      -5.50143729      -8.30228776      -0.02442317      -0.02376941       0.02415468
S       -8.30228776      -8.30228776      -8.30228776      -0.07011759       0.11571803       0.08136854
14
Lattice="-5.53040712 -5.53040712 0.0 -5.53040712 0.0 -5.53040712 0.0 -5.53040712 -5.53040712" Properties=species:S:1:pos:R:3:forces:R:3 energy=-84.77585893111917 pbc="T T T"
Y        0.00000000      -2.76520356      -2.76520356      -0.00029810      -0.00027409       0.00029328
Y       -2.76520356       0.00000000      -2.76520356      -0.00000502       0.00936693      -0.01107494
Y       -2.76520356      -2.76520356       0.00000000      -0.00032310       0.00037443      -0.00007351
Y        0.00000000       0.00000000       0.00000000      -0.00781373      -0.00244720      -0.02212880
Zn      -4.14780534      -4.14780534      -4.14780534      -0.00040511       0.00026141       0.00013246
Zn      -6.91300890      -6.91300890      -6.91300890       0.07425754      -0.01935147      -0.02261279
S       -2.74162146      -5.55398927      -5.55398927      -0.05251374       0.05296395       0.05283497
S       -5.55398927      -2.74162146      -5.55398927       0.05320695      -0.05288559       0.05255092
S       -5.55398927      -5.55398927      -2.74162146       0.12071303       0.07267620      -0.09074913
S       -2.74162146      -2.74162146      -2.74162146       0.05221314      -0.04612323       0.05885812
S       -8.31919278      -5.50682497      -5.50682497       0.04652231      -0.05103860      -0.04557151
S       -5.50682497      -8.31919278      -5.50682497      -0.05324744       0.05314371      -0.05338774
S       -5.50682497      -5.50682497      -8.31919278      -0.00314193      -0.08015296      -0.00337957
S       -8.31919278      -8.31919278      -8.31919278       0.07521372       0.06659950       0.06245011
14
Lattice="-5.55749103 -5.55749103 0.0 -5.55749103 -0.0 -5.55749103 0.0 -5.55749103 -5.55749103" Properties=species:S:1:pos:R:3:forces:R:3 energy=-84.71614649889793 pbc="T T T"
Y        0.00000000      -2.77874552      -2.77874552       0.00002973       0.00025270      -0.00043042
Y       -2.77874552       0.00000000      -2.77874552      -0.00002953      -0.00015567       0.00047423
Y       -2.77874552      -2.77874552       0.00000000       0.00513953      -0.11055941       0.00067016
Y        0.00000000       0.00000000       0.00000000      -0.01483615      -0.02226817       0.02256770
Zn      -4.16811827      -4.16811827      -4.16811827       0.00014513       0.00047837       0.00000991
Zn      -6.94686379      -6.94686379      -6.94686379       0.01291506      -0.00976475       0.00163386
S       -2.74102549      -5.59521100      -5.59521100      -0.17045129       0.15964965       0.17257715
S       -5.59521100      -2.74102549      -5.59521100       0.17294535      -0.17285562       0.17329374
S       -5.59521100      -5.59521100      -2.74102549       0.16564404       0.17324413      -0.16352810
S       -2.74102549      -2.74102549      -2.74102549      -0.18349855      -0.16726400      -0.16531849
S       -8.37395657      -5.51977106      -5.51977106       0.16590688      -0.17993720      -0.17156781
S       -5.51977106      -8.37395657      -5.51977106      -0.17232508       0.17280320      -0.17292057
S       -5.51977106      -5.51977106      -8.37395657      -0.17235765      -0.17268919       0.17297746
S       -8.37395657      -8.37395657      -8.37395657       0.27507140       0.13057918       0.20717956
14
Lattice="-5.59372821 -5.59372821 0.0 -5.59372821 -0.0 -5.59372821 0.0 -5.59372821 -5.59372821" Properties=species:S:1:pos:R:3:forces:R:3 energy=-84.55650560061248 pbc="T T T"
Y        0.00000000      -2.79686411      -2.79686411       0.09529587      -0.12639048      -0.03876493
Y       -2.79686411       0.00000000      -2.79686411       0.00007312      -0.00049184      -0.00005244
Y       -2.79686411      -2.79686411       0.00000000       0.00040125       0.00028281       0.00009497
Y        0.00000000       0.00000000       0.00000000       0.00037998       0.00027433      -0.00017423
Zn      -4.19529616      -4.19529616      -4.19529616       0.00018032       0.00000606      -0.00046631
Zn      -6.99216026      -6.99216026      -6.99216026      -0.00013053      -0.00017013      -0.00045168
S       -2.74013676      -5.65045549      -5.65045549      -0.31423387       0.32789174       0.32391511
S       -5.65045549      -2.74013676      -5.65045549       0.26764915      -0.39781795       0.36309164
S       -5.65045549      -5.65045549      -2.74013676       0.32257005       0.32315839      -0.32273999
S       -2.74013676      -2.74013676      -2.74013676      -0.33768711      -0.27425107      -0.26078806
S       -8.44731966      -5.53700093      -5.53700093       0.32220137      -0.32257062      -0.32280103
S       -5.53700093      -8.44731966      -5.53700093      -0.29836108       0.42874128      -0.32533430
S       -5.53700093      -5.53700093      -8.44731966      -0.32233897      -0.32263124       0.32230485
S       -8.44731966      -8.44731966      -8.44731966       0.33226001       0.32675719       0.32721777
14
Lattice="-5.68126667 -5.68126667 0.0 -5.68126667 -0.0 -5.68126667 0.0 -5.68126667 -5.68126667" Properties=species:S:1:pos:R:3:forces:R:3 energy=-84.29685237881725 pbc="T T T"
Y        0.00000000      -2.84063334      -2.84063334      -0.00047697       0.00012022       0.00008972
Y       -2.84063334       0.00000000      -2.84063334       0.06202632      -0.10841444      -0.00758904
Y       -2.84063334      -2.84063334       0.00000000      -0.09828762       0.02076819      -0.01610580
Y        0.00000000       0.00000000       0.00000000       0.06195238       0.05061348      -0.00042220
Zn      -4.26095000      -4.26095000      -4.26095000       0.00026222      -0.00005691      -0.00042190
Zn      -7.10158334      -7.10158334      -7.10158334       0.00013199       0.00037737       0.00030028
S       -2.80108377      -5.72081618      -5.72081618      -0.00322101       0.00281775       0.00341479
S       -5.72081618      -2.80108377      -5.72081618      -0.00498024      -0.00188194       0.01829098
S       -5.72081618      -5.72081618      -2.80108377       0.00287288       0.00261697      -0.00271756
S       -2.80108377      -2.80108377      -2.80108377       0.01101730       0.01934595      -0.00236514
S       -8.56144957      -5.64171716      -5.64171716      -0.00596835       0.09928486      -0.12125377
S       -5.64171716      -8.56144957      -5.64171716      -0.03665248       0.00664152      -0.02230740
S       -5.64171716      -5.64171716      -8.56144957       0.00112940       0.01429601       0.00296971
S       -8.56144957      -8.56144957      -8.56144957       0.00275787       0.00342218       0.00288316
14
Lattice="-5.442882 -5.442882 0.0 -5.442882 0.0 -5.442882 0.0 -5.442882 -5.442882" Properties=species:S:1:pos:R:3:forces:R:3 energy=-83.67919137443474 pbc="T T T"
Y        0.00000000      -2.72144100      -2.72144100       0.03600262       0.07058797       0.01100680
Y       -2.72144100       0.00000000      -2.72144100       0.00008158      -0.00047578      -0.00013030
Y       -2.72144100      -2.72144100       0.00000000      -0.00038488       0.00012584       0.00029331
Y        0.00000000       0.00000000       0.00000000       0.00042189      -0.00016814      -0.00020914
Zn      -4.08216150      -4.08216150      -4.08216150       0.12390733       0.10471323       0.04618380
Zn      -6.80360250      -6.80360250      -6.80360250       0.00004949       0.00049618      -0.00003689
S       -2.63435489      -5.52996811      -5.52996811      -1.02090319       1.01894185       1.01896735
S       -5.52996811      -2.63435489      -5.52996811       1.02136821      -1.02034578       1.01979977
S       -5.52996811      -5.52996811      -2.63435489       1.02017609       1.02122712      -1.01954644
S       -2.63435489      -2.63435489      -2.63435489      -1.01959600      -1.02058584      -1.01909510
S       -8.25140911      -5.35579589      -5.35579589       0.98771334      -1.06990577      -1.02596538
S       -5.35579589      -8.25140911      -5.35579589      -1.01927074       1.01900937      -1.01971828
S       -5.35579589      -5.35579589      -8.25140911      -0.84914136      -0.79573122       0.87510512
S       -8.25140911      -8.25140911      -8.25140911       0.95487915       0.97028061       0.99533139
14
Lattice="5.51615716 5.51615716 0.0 5.51615716 0.0 -5.51615716 0.0 5.51615716 -5.51615716" Properties=species:S:1:pos:R:3:forces:R:3 energy=-84.79783563358234 pbc="T T T"
Y        5.51615716       2.75807858      -2.75807858      -0.00949310      -0.00353879       0.02254910
Y        2.75807858       5.51615716      -2.75807858       0.00329732       0.00306793      -0.01627680
Y        2.75807858       2.75807858       0.00000000      -0.05284432      -0.00582009      -0.05977963
Y        0.00000000       0.00000000       0.00000000      -0.08760980      -0.09539150       0.01293827
Zn       6.89519645       6.89519645      -4.13711787      -0.00046514      -0.00015651      -0.00009567
Zn       4.13711787       4.13711787      -6.89519645       0.00007659       0.00038755      -0.00030649
S        8.29091958       5.49947332      -5.53284100       0.01293849      -0.01315952      -0.01316954
S        5.49947332       8.29091958      -5.53284100      -0.01653292      -0.01261115       0.00620867
S        5.49947332       5.49947332      -2.74139474       0.09037168      -0.02913301       0.03715041
S        2.77476242       2.77476242      -2.74139474       0.01354394       0.01366974       0.01301438
S        2.74139474       5.53284100      -5.49947332      -0.01322001       0.01287941       0.01340841
S        5.53284100       2.74139474      -5.49947332       0.01359279      -0.01360468       0.01299209
S        5.53284100       5.53284100      -8.29091958       0.01366171       0.01369971      -0.01315678
S        8.25755190       8.25755190      -8.29091958      -0.00898492       0.01702033      -0.03409610
14
Lattice="5.54658212 5.54658212 -0.0 5.54658212 -0.0 -5.54658212 0.0 5.54658212 -5.54658212" Properties=species:S:1:pos:R:3:forces:R:3 energy=-84.75675073207185 pbc="T T T"
Y        5.54658212       2.77329106      -2.77329106       0.00032581       0.00009280       0.00036775
Y        2.77329106       5.54658212      -2.77329106       0.00594889      -0.00631139       0.00497766
Y        2.77329106       2.77329106       0.00000000      -0.06461444       0.04519978       0.01348903
Y        0.00000000       0.00000000       0.00000000      -0.00003240       0.00021839      -0.00044861
Zn       6.93322765       6.93322765      -4.15993659       0.00046536       0.00000605      -0.00018278
Zn       4.15993659       4.15993659      -6.93322765      -0.00022944       0.00029383       0.00033320
S        8.35079965       5.51565560      -5.57750859      -0.11000805       0.10079780       0.10198301
S        5.51565560       8.35079965      -5.57750859       0.10943587      -0.10954856       0.11007315
S        5.51565560       5.51565560      -2.74236454       0.11007357       0.10977845      -0.10966091
S        2.80421753       2.80421753      -2.74236454      -0.10999432      -0.10973686      -0.10989527
S        2.74236459       5.57750864      -5.51565565       0.10529956      -0.13359497      -0.11127311
S        5.57750864       2.74236459      -5.51565565      -0.10938164       0.10920177      -0.10941986
S        5.57750864       5.57750864      -8.35079970      -0.10970952      -0.11813040       0.11961308
S        8.28894671       8.28894671      -8.35079970       0.10959556       0.10983600       0.10916267
14
Lattice="5.56703602 5.56703602 0.0 5.56703602 0.0 -5.56703602 -0.0 5.56703602 -5.56703602" Properties=species:S:1:pos:R:3:forces:R:3 energy=-84.68714575246497 pbc="T T T"
Y        5.56703602       2.78351801      -2.78351801      -0.00036104      -0.00004027      -0.00034356
Y        2.78351801       5.56703602      -2.78351801       0.00036993      -0.00030755      -0.00013626
Y        2.78351801       2.78351801       0.00000000      -0.00038015      -0.00022644       0.00023283
Y        0.00000000       0.00000000       0.00000000      -0.01719561       0.00454923       0.00525823
Zn       6.95879502       6.95879502      -4.17527701       0.00798574       0.00954712      -0.00509103
Zn       4.17527701       4.17527701      -6.95879502       0.00037117      -0.00000239       0.00033501
S        8.39369834       5.52389171      -5.61018033      -0.13403032       0.21508238       0.25859574
S        5.52389171       8.39369834      -5.61018033       0.22442493      -0.22375631       0.22426844
S        5.52389171       5.52389171      -2.74037370       0.22469174       0.24720888      -0.19733945
S        2.82666232       2.82666232      -2.74037370      -0.22450362      -0.22452543      -0.22439744
S        2.74037370       5.61018033      -5.52389171       0.12076964      -0.23712864      -0.23288076
S        5.61018033       2.74037370      -5.52389171      -0.22383468       0.22419485      -0.22384285
S        5.61018033       5.61018033      -8.39369834      -0.23945737      -0.17788940       0.08013221
S        8.30740972       8.30740972      -8.39369834       0.19493739       0.19725498       0.22357454
14
Lattice="5.84474578 5.84474578 0.0 5.84474578 0.0 -5.84474578 -0.0 5.84474578 -5.84474578" Properties=species:S:1:pos:R:3:forces:R:3 energy=-82.7158070780377 pbc="T T T"
Y        5.84474578       2.92237289      -2.92237289       0.00835458      -0.00571918       0.01424443
Y        2.92237289       5.84474578      -2.92237289      -0.01265725      -0.00562332       0.00992017
Y        2.92237289       2.92237289       0.00000000      -0.00000731      -0.00046251      -0.00018983
Y        0.00000000       0.00000000       0.00000000      -0.05452479       0.04147450      -0.04131482
Zn       7.30593223       7.30593223      -4.38355934       0.00015760       0.00038686      -0.00027477
Zn       4.38355934       4.38355934      -7.30593223      -0.00012018      -0.00047898      -0.00007830
S        8.77642193       5.83544258      -5.85404904       0.44315116      -0.44258984      -0.44261025
S        5.83544258       8.77642193      -5.85404904      -0.44284338       0.44245939      -0.44259472
S        5.83544258       5.83544258      -2.91306969      -0.44323697      -0.44257565       0.44245026
S        2.93167615       2.93167615      -2.91306969       0.44289190       0.44317864       0.44350104
S        2.91306963       5.85404898      -5.83544252      -0.57242585       0.55174811       0.42798002
S        5.85404898       2.91306963      -5.83544252       0.40556922      -0.43423276       0.41493847
S        5.85404898       5.85404898      -8.77642187       0.44268012       0.44269089      -0.44233585
S        8.75781541       8.75781541      -8.77642187      -0.44326192      -0.44237843      -0.44308071
14
Lattice="5.26 5.26 0.0 5.26 0.0 -5.26 0.0 5.26 -5.26" Properties=species:S:1:pos:R:3:forces:R:3 energy=-81.4220549417349 pbc="T T T"
Y        5.26000000       2.63000000      -2.63000000       0.00919261      -0.00279571      -0.00277126
Y        2.63000000       5.26000000      -2.63000000      -0.00037372       0.00021152       0.00025611
Y        2.63000000       2.63000000       0.00000000       0.04580703      -0.08743619       0.00517456
Y        0.00000000       0.00000000       0.00000000       0.00310168       0.00427633      -0.01399941
Zn       6.57500000       6.57500000      -3.94500000       0.05648799      -0.05343951      -0.01879695
Zn       3.94500000       3.94500000      -6.57500000       0.03301488      -0.00672875      -0.00037698
S        7.97416000       5.17584000      -5.34416000      -1.76821038       1.32410122       1.81978586
S        5.17584000       7.97416000      -5.34416000       1.57232121      -1.57150246       1.57157605
S        5.17584000       5.17584000      -2.54584000       1.56916363       1.57000184      -1.57070862
S        2.71416000       2.71416000      -2.54584000      -1.51574936      -1.47668897      -1.67514669
S        2.54584000       5.34416000      -5.17584000       1.53984329      -1.59554471      -1.56454826
S        5.34416000       2.54584000      -5.17584000      -1.66186049       1.64941174      -1.61327957
S        5.34416000       5.34416000      -7.97416000      -1.53078363      -1.46528046       1.54728715
S        7.80584000       7.80584000      -7.97416000       1.57160904       1.57288626       1.57145923
14
Lattice="0.0 5.516157 5.516157 5.516157 0.0 5.516157 5.516157 5.516157 0.0" Properties=species:S:1:pos:R:3:forces:R:3 energy=-84.80227978036108 pbc="T T T"
Y        6.89519625       4.13711775       4.13711775      -0.00193196      -0.00977064       0.00089517
Y        4.13711775       6.89519625       4.13711775       0.00017809      -0.00005531       0.00046358
Y        4.13711775       4.13711775       6.89519625      -0.01299182      -0.00186927       0.00333649
Y        6.89519625       6.89519625       6.89519625      -0.00011312       0.00024978      -0.00041780
Zn       2.75807850       2.75807850       2.75807850      -0.02021063       0.00542434      -0.12235406
Zn       0.00000000       0.00000000       0.00000000       0.00040611       0.00040326       0.00000600
S        4.15379861       6.87850988       6.87850988       0.00938485      -0.00927564      -0.00990456
S        6.87850988       4.15379861       6.87850988      -0.00924173       0.00965786      -0.00987634
S        6.87850988       6.87850988       4.15379861       0.03677170      -0.07536099      -0.00718720
S        4.15379861       4.15379861       4.15379861       0.00929818       0.00932812       0.00992416
S        9.63659389       6.91188262       6.91188262      -0.01819371       0.00723397       0.01388814
S        6.91188262       9.63659389       6.91188262       0.00966013      -0.00993921       0.00930809
S        6.91188262       6.91188262       9.63659389       0.00404638      -0.00230859       0.00909578
S        9.63659389       9.63659389       9.63659389       0.04211399       0.04054727      -0.04457052
14
Lattice="0.0 5.59284695 5.59284695 5.59299704 0.0 5.59284695 5.59299704 5.59284695 0.0" Properties=species:S:1:pos:R:3:forces:R:3 energy=-88.56123679787298 pbc="T T T"
Y        4.19474778       6.99105869       4.19463521      -0.00005208      -0.00021424       0.00044876
Y        4.19474778       4.19463521       6.99105869      -0.00044650      -0.00010967      -0.00019649
Y        6.99124630       4.19463521       4.19463521      -0.00200768       0.01092416      -0.01019026
Y        6.99124630       6.99105869       6.99105869       0.02565052       0.01239983       0.00063011
Mg       0.00000000       0.00000000       0.00000000       0.00002216       0.00040098       0.00029786
Mg       2.79649852       2.79642348       2.79642348      -0.02780527       0.00217800       0.07498082
S        4.24605178       4.24591871       4.24591871       0.00237031       0.00178132       0.00154640
S        4.24605178       6.93977519       6.93977519      -0.00169980       0.00359582       0.00552099
S        6.93994230       4.24591871       6.93977519      -0.00162495       0.00188261      -0.00214751
S        6.93994230       6.93977519       4.24591871       0.06982344      -0.01584052       0.10817392
S        7.04255030       7.04234219       9.73619866       0.00068425       0.03694151      -0.00619303
S        7.04255030       9.73619866       7.04234219       0.00227567      -0.00222562       0.00158273
S        9.73644082       7.04234219       7.04234219      -0.12355753       0.09769828       0.06937388
S        9.73644082       9.73619866       9.73619866       0.07609097      -0.04809937      -0.11175327
14
Lattice="0.0 5.58939828 5.58939828 5.58950641 0.0 5.58939828 5.58950641 5.58939828 0.0" Properties=species:S:1:pos:R:3:forces:R:3 energy=-88.55926484260009 pbc="T T T"
Y        4.19212981       6.98674785       4.19204871       0.00296873       0.01345499       0.00217769
Y        4.19212981       4.19204871       6.98674785       0.00006524       0.00040247       0.00028941
Y        6.98688301       4.19204871       4.19204871       0.03800928      -0.00718046      -0.00497763
Y        6.98688301       6.98674785       6.98674785       0.08041993      -0.12176295      -0.05088696
Mg       0.00000000       0.00000000       0.00000000      -0.01281232      -0.00048078       0.01783014
Mg       2.79475321       2.79469914       2.79469914      -0.00040950      -0.00003216      -0.00028508
S        4.23943995       4.23933239       4.23933239       0.04277110       0.04277012       0.04213672
S        4.23943995       6.93946422       6.93946422       0.04244298      -0.04301057      -0.04267490
S        6.93957293       4.23933239       6.93946422      -0.02233476       0.04544310      -0.05970983
S        6.93957293       6.93946422       4.23933239      -0.05285747      -0.04221905       0.00840069
S        7.03419310       7.03403148       9.73416331       0.04226100       0.04288485      -0.04239097
S        7.03419310       9.73416331       7.03403148       0.04240608      -0.04252808       0.04208984
S        9.73432608       7.03403148       7.03403148      -0.04290245       0.04252900       0.04215591
S        9.73432608       9.73416331       9.73416331      -0.04217290      -0.04228689      -0.04255894
14
Lattice="0.0 5.5858392 5.5858392 5.58590404 0.0 5.5858392 5.58590404 5.5858392 0.0" Properties=species:S:1:pos:R:3:forces:R:3 energy=-88.55256385531528 pbc="T T T"
Y        4.18942803       6.98229900       4.18937940      -0.00235302      -0.01161460      -0.00896359
Y        4.18942803       4.18937940       6.98229900      -0.00043227       0.00016797       0.00018690
Y        6.98238005       4.18937940       4.18937940      -0.00029410       0.00024483       0.00032181
Y        6.98238005       6.98229900       6.98229900      -0.05789540      -0.01223288      -0.05383752
Mg       0.00000000       0.00000000       0.00000000      -0.00020560       0.00037753      -0.00025534
Mg       2.79295202       2.79291960       2.79291960      -0.02141459      -0.14373021      -0.04712346
S        4.23261891       4.23253766       4.23253766       0.08769166       0.15332768       0.20642296
S        4.23261891       6.93914068       6.93914068       0.08457523      -0.08533882      -0.08501466
S        6.93918911       4.23253766       6.93914068      -0.08509753       0.08480914      -0.08453541
S        6.93918911       6.93914068       4.23253766      -0.08476912      -0.08536838       0.08502878
S        7.02557099       7.02545732       9.73206034       0.07819360       0.09417150      -0.08201358
S        7.02557099       9.73206034       7.02545732       0.08496827      -0.08449560       0.08511014
S        9.73214119       7.02545732       7.02545732      -0.13128351       0.23590862       0.08032428
S        9.73214119       9.73206034       9.73206034      -0.08426890      -0.08478380      -0.08495853
14
Lattice="0.0 5.65359475 5.65359475 5.65364544 0.0 5.65359475 5.65364544 5.65359475 0.0" Properties=species:S:1:pos:R:3:forces:R:3 energy=-88.4480312855061 pbc="T T T"
Y        4.24023408       7.06699344       4.24019606       0.00000657       0.00038258       0.00032186
Y        4.24023408       4.24019606       7.06699344      -0.00009280       0.00039668      -0.00028989
Y        7.06705680       4.24019606       4.24019606       0.02148509      -0.01731365      -0.01158539
Y        7.06705680       7.06699344       7.06699344       0.00017157      -0.00005746       0.00046611
Mg       0.00000000       0.00000000       0.00000000      -0.00121572      -0.01076257      -0.00380743
Mg       2.82682272       2.82679737       2.82679737       0.00817107      -0.02623869      -0.02200178
S        4.28205217       4.28198218       4.28198218       0.18894976       0.18835293       0.18902566
S        4.28205217       7.02520732       7.02520732       0.19148660      -0.15312046      -0.18477099
S        7.02523871       4.28198218       7.02520732      -0.13853882       0.22201408      -0.34497199
S        7.02523871       7.02520732       4.28198218      -0.18955912      -0.18889407       0.18863641
S        7.10887489       7.10877955       9.85200470       0.21783291       0.18442403      -0.17288315
S        7.10887489       9.85200470       7.10877955       0.18955617      -0.18884311       0.18856075
S        9.85206143       7.10877955       7.10877955      -0.19214529       0.18045694       0.20445614
S        9.85206143       9.85200470       9.85200470      -0.16648454      -0.11952877      -0.22190638
14
Lattice="0.0 5.484438 5.484438 5.484524 0.0 5.484438 5.484524 5.484438 0.0" Properties=species:S:1:pos:R:3:forces:R:3 energy=-88.30478531870145 pbc="T T T"
Y        4.11339300       6.85554750       4.11332850       0.00613908       0.01360010      -0.01385539
Y        4.11339300       4.11332850       6.85554750      -0.01009799      -0.01197739      -0.00582237
Y        6.85565500       4.11332850       4.11332850       0.00004774      -0.00047258       0.00015617
Y        6.85565500       6.85554750       6.85554750       0.03649979       0.06612369       0.02637087
Mg       0.00000000       0.00000000       0.00000000       0.01270932       0.01104624      -0.00977242
Mg       2.74226200       2.74221900       2.74221900      -0.00725443       0.00738490       0.02856353
S        4.15869517       4.15859705       4.15859705      -0.08268753       0.00716530      -0.09802103
S        4.15869517       6.81027895       6.81027895      -0.10737148       0.09703594       0.10285341
S        6.81035283       4.15859705       6.81027895       0.09779163      -0.09813596       0.09844857
S        6.81035283       6.81027895       4.15859705       0.10724949       0.13394000      -0.09021888
S        6.90095717       6.90081605       9.55249795      -0.09788144      -0.09768728       0.09801927
S        6.90095717       9.55249795       6.90081605      -0.18416103       0.00563148      -0.03122802
S        9.55261483       6.90081605       6.90081605       0.09790505      -0.09846969      -0.09786793
S        9.55261483       9.55249795       9.55249795       0.09833998       0.09844694       0.09840825
14
Lattice="0.0 5.592897 5.592897 5.592897 0.0 5.592897 5.592897 5.592897 0.0" Properties=species:S:1:pos:R:3:forces:R:3 energy=-88.5621725681656 pbc="T T T"
Y        4.19467275       6.99112125       4.19467275      -0.02241079       0.00904138      -0.02436586
Y        4.19467275       4.19467275       6.99112125      -0.01825212      -0.00497612       0.01187740
Y        6.99112125       4.19467275       4.19467275      -0.00044548      -0.00010924       0.00019904
Y        6.99112125       6.99112125       6.99112125       0.00016154       0.00014426       0.00045066
Mg       0.00000000       0.00000000       0.00000000      -0.01067509      -0.02124215      -0.01054012
Mg       2.79644850       2.79644850       2.79644850      -0.04155648       0.02363154      -0.12947655
S        4.24595962       4.24595962       4.24595962       0.00408826      -0.03183049       0.00238992
S        4.24595962       6.93982879       6.93982879      -0.00399612       0.00749333       0.01316313
S        6.93982879       4.24595962       6.93982879       0.00370665      -0.00339853       0.00398380
S        6.93982879       6.93982879       4.24595962       0.00401498       0.00352064      -0.00337546
S        7.04241371       7.04241371       9.73628288      -0.00318539      -0.00318095       0.00358958
S        7.04241371       9.73628288       7.04241371      -0.00337162       0.00384639      -0.00382167
S        9.73628288       7.04241371       7.04241371       0.01634547       0.01317751      -0.00106296
S        9.73628288       9.73628288       9.73628288       0.00396268       0.00346265       0.00359748
14
Lattice="0.0 5.72644796 5.73525959 5.72647841 0.0 5.73525959 5.72647841 5.72644796 0.0" Properties=species:S:1:pos:R:3:forces:R:3 energy=-52.02507588731362 pbc="T T T"
Mg       0.00000000       0.00000000       0.00000000       0.00028932       0.00009113       0.00039748
Mg       2.86323921       2.86322398       2.86762980       0.00099486      -0.01352886      -0.01978302
In       4.29485881       4.29483597       7.16907449      -0.00924537       0.00915119      -0.02461474
In       4.29485881       7.15805995       4.30144469      -0.01156218       0.02200808       0.00978840
In       7.15809801       4.29483597       4.30144469      -0.08384985      -0.01144697       0.03375155
In       7.15809801       7.15805995       7.16907449      -0.00030343      -0.00039435       0.00004919
Se       4.37616650       4.37611419       4.38600783       0.02101728       0.00439417       0.01097541
Se       4.37616650       7.07678178       7.08451141      -0.04761759      -0.03787109      -0.08724255
Se       7.07679038       4.37611419       7.08451141      -0.10699251       0.12772739      -0.03215336
Se       7.07679038       7.07678178       4.38600783      -0.00631410      -0.02004367       0.00580906
Se       7.23940565       9.94000571       7.25363756       0.00778704      -0.00838163       0.00435156
Se       7.23940565       7.23933812       9.95214115       0.00787279       0.00862362      -0.00468686
Se       9.94002953       7.23933812       7.25363756      -0.02943363      -0.01548034      -0.00555567
Se       9.94002953       9.94000571       9.95214115      -0.00761219      -0.00811089      -0.00497307
14
Lattice="0.0 5.7323114 5.74041108 5.73243986 0.0 5.74041108 5.73243986 5.7323114 0.0" Properties=species:S:1:pos:R:3:forces:R:3 energy=-52.0208580919903 pbc="T T T"
Mg       0.00000000       0.00000000       0.00000000       0.02572047      -0.01546652       0.00246742
Mg       2.86621993       2.86615570       2.87020554       0.00047581      -0.00012012       0.00009577
In       4.29932990       4.29923355       7.17551385      -0.00026065      -0.00035423      -0.00023786
In       4.29932990       7.16538925       4.30530831       0.00001462       0.00025877       0.00042758
In       7.16554983       4.29923355       4.30530831       0.00011281       0.00028279       0.00039661
In       7.16554983       7.16538925       7.17551385      -0.00041852       0.00026286       0.00007577
Se       4.38704901       4.38692358       4.39636426      -0.05559040      -0.05508038      -0.06079585
Se       4.38704901       7.07769916       7.08445784       0.03265557       0.08461109      -0.07348878
Se       7.07783065       4.38692358       7.08445784       0.05339908      -0.06188794       0.06768866
Se       7.07783065       7.07769916       4.39636426       0.06333839       0.06108254      -0.05964009
Se       7.25326900       9.94385492       7.26656986      -0.05569935       0.05539094      -0.06026139
Se       7.25326900       7.25307934       9.95466344      -0.05567281      -0.05503108       0.06025894
Se       9.94405064       7.25307934       7.26656986       0.04302276      -0.03554412      -0.06704840
Se       9.94405064       9.94385492       9.95466344       0.05479770       0.05506003       0.06048292
14
Lattice="0.0 5.73660274 5.74418135 5.73680293 0.0 5.74418135 5.73680293 5.73660274 0.0" Properties=species:S:1:pos:R:3:forces:R:3 energy=-52.011793909578685 pbc="T T T"
Mg       0.00000000       0.00000000       0.00000000      -0.00687934       0.00585382       0.02013501
Mg       2.86840146       2.86830137       2.87209067       0.02618370      -0.00059593       0.02377894
In       4.30260220       4.30245206       7.18022669      -0.00756720       0.00873126       0.00095740
In       4.30260220       7.17075343       4.30813601       0.14320690       0.04894284       0.05570718
In       7.17100366       4.30245206       4.30813601       0.01405734      -0.01129675       0.00186096
In       7.17100366       7.17075343       7.18022669       0.00029070       0.00025968      -0.00031315
Se       4.39501859       4.39483953       4.40394827      -0.16104938       0.01131115      -0.19773030
Se       4.39501859       7.07836595       7.08441443      -0.10052255       0.10076492       0.10138595
Se       7.07858727       4.39483953       7.08441443       0.10084023      -0.10082835       0.10210781
Se       7.07858727       7.07836595       4.40394827       0.10050922       0.10093527      -0.10151810
Se       7.26342006       9.94666732       7.27603894      -0.10054125       0.10085603      -0.10144203
Se       7.26342006       7.26314090       9.95650511      -0.10083825      -0.10093864       0.10186569
Se       9.94698873       7.26314090       7.27603894       0.11619260      -0.08729523      -0.09382469
Se       9.94698873       9.94666732       9.95650511       0.10042096       0.10006354       0.10187869
14
Lattice="0.0 5.71931802 5.72702155 5.71950725 0.0 5.72702155 5.71950725 5.71931802 0.0" Properties=species:S:1:pos:R:3:forces:R:3 energy=-52.00649449741437 pbc="T T T"
Mg       0.00000000       0.00000000       0.00000000      -0.00038770      -0.00028443       0.00013707
Mg       2.85975363       2.85965901       2.86351077      -0.00041636      -0.00016850      -0.00021966
In       4.28963044       4.28948852       7.15877694      -0.00021180      -0.00037170      -0.00025881
In       4.28963044       7.14914753       4.29526616       0.00021489      -0.00915729      -0.00401221
In       7.14938406       4.28948852       4.29526616       0.00012677       0.00031107       0.00037036
In       7.14938406       7.14914753       7.15877694      -0.00049669       0.00000258       0.00005734
Se       4.38219992       4.38202931       4.39118530      -0.13094637      -0.13091936      -0.13435262
Se       4.38219992       7.05660673       7.06285780      -0.09969706       0.24450576       0.18215042
Se       7.05681458       4.38202931       7.06285780       0.13093388      -0.13069119       0.13430231
Se       7.05681458       7.05660673       4.39118530       0.13135058       0.13078217      -0.13368193
Se       7.24195354       9.91626574       7.25469607      -0.11506601       0.24100898      -0.17868349
Se       7.24195354       7.24168832       9.92636858      -0.10315842      -0.13877339       0.15655033
Se       9.91656821       7.24168832       7.25469607       0.13109288      -0.13119893      -0.13424860
Se       9.91656821       9.91626574       9.92636858       0.13185951       0.13072839       0.13399331
14
Lattice="0.0 5.92892995 5.93511863 5.92925215 0.0 5.93511863 5.92925215 5.92892995 0.0" Properties=species:S:1:pos:R:3:forces:R:3 energy=-51.42006547240333 pbc="T T T"
Mg       0.00000000       0.00000000       0.00000000       0.00939008       0.00330733      -0.00094234
Mg       2.96462607       2.96446497       2.96755931       0.03515307       0.00429081       0.00698870
In       4.44693911       4.44669746       7.41889829       0.00027891      -0.00033906       0.00023927
In       4.44693911       7.41116244       4.45133897      -0.00016633       0.00044633       0.00015207
In       7.41156519       4.44669746       4.45133897       0.17000888      -0.03301567       0.01290044
In       7.41156519       7.41116244       7.41889829      -0.01975899      -0.00337169      -0.01510543
Se       4.53768940       4.53741703       4.54599563       0.12043529       0.12012622       0.10902291
Se       4.53768940       7.32044287       7.32424163       0.13081830      -0.12188723      -0.14098347
Se       7.32081490       4.53741703       7.32424163      -0.04990219       0.13551784      -0.07453651
Se       7.32081490       7.32044287       4.54599563      -0.08743579      -0.15143461      -0.02064420
Se       7.50231547      10.28490785       7.51355494       0.14262434      -0.10275757       0.11932326
Se       7.50231547       7.50188200      10.29180095       0.12022583       0.11971104      -0.10934612
Se      10.28544098       7.50188200       7.51355494      -0.12044422       0.12053022       0.10976749
Se      10.28544098      10.28490785      10.29180095      -0.12682483      -0.12940229      -0.09809642
14
Lattice="0.0 5.95123063 5.97308887 5.96038332 0.0 5.97308887 5.96038332 5.95123063 0.0" Properties=species:S:1:pos:R:3:forces:R:3 energy=-51.22573112952032 pbc="T T T"
Mg       0.00000000       0.00000000       0.00000000       0.00003570      -0.00049772      -0.00003164
Mg       2.98019166       2.97561532       2.98654443      -0.01873912      -0.01576455       0.00430138
In       4.47028749       4.46342297       7.46636109      -0.00003010       0.00033417       0.00037071
In       4.47028749       7.43903829       4.47981665      -0.00744034      -0.00177566      -0.00959652
In       7.45047915       4.46342297       4.47981665       0.06976440      -0.05421472      -0.04777810
In       7.45047915       7.43903829       7.46636109       0.00016373       0.00028754      -0.00037485
Se       4.55961266       4.55233727       4.57188841       0.10616456       0.18874450       0.06928693
Se       4.55961266       7.35012399       7.37428933       0.17922009      -0.15503859      -0.12868772
Se       7.36115398       4.55233727       7.37428933      -0.17709487       0.16226062      -0.16565779
Se       7.36115398       7.35012399       4.57188841      -0.16822260      -0.16021518       0.14587079
Se       7.53980432      10.32573930       7.55843285       0.10587075      -0.17429045       0.20867164
Se       7.53980432       7.52795259      10.36083376       0.16300176       0.16085601      -0.15440752
Se      10.34134564       7.52795259       7.55843285      -0.31677732       0.13972541       0.13532850
Se      10.34134564      10.32573930      10.36083376      -0.16932233      -0.14281014      -0.16186454
12
Lattice="3.36162156 0.0 3.35606801 3.36162156 0.0 -3.35606801 0.0 6.58336481 0.0" Properties=species:S:1:pos:R:3:forces:R:3 energy=-75.8063905541947 pbc="T T T"
H        3.36162156       1.37125663      -0.55913187      -0.00009259      -0.02055420       0.01360414
H        3.36162156       5.21210818      -0.55913187       0.01923098       0.02175685       0.02526035
H        3.36162156       4.66293903      -2.79693614       0.00732784      -0.02205743      -0.00506758
H        3.36162156       1.92042578      -2.79693614       0.00033476       0.02004748      -0.01345708
C        3.36162156       3.29168240      -0.68752000       0.00021122       0.00007610      -0.03035948
C        3.36162156       0.00000000      -2.66854801       0.00039115      -0.00031061       0.02993547
O        3.36162156       3.29168240      -1.95290262       0.00002233       0.00038579      -0.00950590
O        3.36162156       0.00000000      -1.40316539       0.00044478      -0.00017502       0.00967641
O        3.36162156       2.19778327       0.03668901       0.00028446      -0.01638396       0.00848647
O        3.36162156       4.38558154       0.03668901      -0.00168365      -0.05835684       0.06762864
O        3.36162156       5.48946567       3.31937900       0.00019326      -0.01556725      -0.00863952
O        3.36162156       1.09389914       3.31937900       0.01238051       0.00085726      -0.02774712
12
Lattice="3.36389462 0.0 3.3568581 3.36389462 0.0 -3.3568581 0.0 6.58239395 0.0" Properties=species:S:1:pos:R:3:forces:R:3 energy=-75.80555469743909 pbc="T T T"
H        3.36389462       1.37402096      -0.56020544      -0.01673303      -0.07276690       0.00863360
H        3.36389462       5.20837299      -0.56020544      -0.01814651      -0.10913505       0.02461318
H        3.36389462       4.66521793      -2.79665266       0.00024616      -0.05785270      -0.01972432
H        3.36389462       1.91717602      -2.79665266       0.02243034       0.06602426      -0.03167082
C        3.36389462       3.29119698      -0.68800740      -0.00400080       0.01304526       0.03270881
C        3.36389462       0.00000000      -2.66885070       0.02456520      -0.02958546      -0.02954828
O        3.36389462       3.29119698      -1.95294485      -0.00038532      -0.00025382       0.00084788
O        3.36389462       0.00000000      -1.40391325      -0.00046155       0.00019020      -0.00101226
O        3.36389462       2.19755690       0.03757083      -0.02031807       0.02737656      -0.04077211
O        3.36389462       4.38483705       0.03757083       0.00520929      -0.05042711      -0.01987914
O        3.36389462       5.48875388       3.31928727       0.00128012       0.00631216       0.02500222
O        3.36389462       1.09364007       3.31928727       0.00035457      -0.01780961       0.02881474
12
Lattice="3.36202341 0.0 3.35851032 3.36202341 0.0 -3.35851032 0.0 6.59123371 0.0" Properties=species:S:1:pos:R:3:forces:R:3 energy=-75.80144032102739 pbc="T T T"
H        3.36202341       1.37336040      -0.55990082      -0.00030601      -0.02563046       0.02556047
H        3.36202341       5.21787331      -0.55990082       0.00035395       0.02608129       0.02599629
H        3.36202341       4.66897725      -2.79860950       0.00040514      -0.02548570      -0.02610090
H        3.36202341       1.92225646      -2.79860950      -0.00000788       0.02531096      -0.02621173
C        3.36202341       3.29561686      -0.69054573       0.00320322       0.00652507       0.19522120
C        3.36202341       0.00000000      -2.66796459       0.00045947      -0.00004709      -0.20228020
O        3.36202341       3.29561686      -1.95596860       0.02001476      -0.00694062       0.15165305
O        3.36202341       0.00000000      -1.40254172      -0.01933593      -0.00084316      -0.15154987
O        3.36202341       2.19680092       0.03906868       0.02678561       0.24289208      -0.06979239
O        3.36202341       4.39443279       0.03906868      -0.00008085      -0.27127754      -0.17790993
O        3.36202341       5.49241777       3.31944164      -0.10945507       0.23421812       0.05057000
O        3.36202341       1.09881594       3.31944164      -0.05036951      -0.21653219       0.24971118
12
Lattice="3.35965611 0.0 3.35129414 3.35965611 0.0 -3.35129414 0.0 6.5745505 0.0" Properties=species:S:1:pos:R:3:forces:R:3 energy=-75.80252500248986 pbc="T T T"
H        3.35965611       1.37079233      -0.55894057       0.01309993      -0.05419534       0.00663311
H        3.35965611       5.20375817      -0.55894057       0.01980249       0.04614064       0.02699803
H        3.35965611       4.65806758      -2.79235357       0.00003362      -0.05016829      -0.00208008
H        3.35965611       1.91648292      -2.79235357      -0.01771051       0.03191135      -0.03088719
C        3.35965611       3.28727525      -0.68337023       0.00006666       0.00045391      -0.26769067
C        3.35965611       0.00000000      -2.66792391      -0.00946828      -0.00316514       0.26806949
O        3.35965611       3.28727525      -1.94844757       0.00040381      -0.00007568      -0.15504068
O        3.35965611       0.00000000      -1.40284657       0.00010528      -0.00040884       0.15448782
O        3.35965611       2.19785264       0.03547104       0.00037883      -0.28209417       0.19584674
O        3.35965611       4.37669786       0.03547104       0.01448046       0.30425270       0.11434036
O        3.35965611       5.48512789       3.31582310      -0.00385674      -0.28642159      -0.18588983
O        3.35965611       1.08942261       3.31582310      -0.03955879       0.22302909      -0.23217068
12
Lattice="3.36875 0.0 3.3603 3.36875 0.0 -3.3603 0.0 6.5826 0.0" Properties=species:S:1:pos:R:3:forces:R:3 energy=-75.80481846374374 pbc="T T T"
H        3.36875000       1.37717866      -0.56147253       0.04583927      -0.04149629      -0.12561492
H        3.36875000       5.20542134      -0.56147253       0.00034331       0.09724478       0.02123767
H        3.36875000       4.66847866      -2.79882747       0.01756043      -0.11476346      -0.03838030
H        3.36875000       1.91412134      -2.79882747       0.00040117       0.09773480      -0.02161065
C        3.36875000       3.29130000      -0.69003761      -0.02283744      -0.05867290       0.21139270
C        3.36875000       0.00000000      -2.67026240      -0.02581619      -0.02108948      -0.09273189
O        3.36875000       3.29130000      -1.95451849       0.02081506       0.00688024       0.01278067
O        3.36875000       0.00000000      -1.40578150      -0.00036156       0.00009084      -0.01763955
O        3.36875000       2.19786431       0.03824021      -0.02517651       0.06777377      -0.04692987
O        3.36875000       4.38473569       0.03824021      -0.00801232      -0.02552571       0.07593380
O        3.36875000       5.48916431       3.32205979      -0.00020177       0.05588593       0.05572145
O        3.36875000       1.09343569       3.32205979       0.00043371      -0.05537954       0.05523275
12
Lattice="3.356068 -3.361622 0.0 3.356068 3.361622 0.0 0.0 0.0 6.583365" Properties=species:S:1:pos:R:3:forces:R:3 energy=-75.84405997736248 pbc="T T T"
H        4.47496765       0.00000000       3.56626807       0.03271844       0.14344518       0.05872328
H        4.47496765       0.00000000       6.30877943       0.02806066       0.00027562      -0.00381470
H        2.23716835       0.00000000       0.27458557      -0.02782317       0.00016464       0.00386472
H        2.23716835       0.00000000       3.01709693      -0.03113789      -0.00358454       0.00460970
C        4.34658462       0.00000000       1.64584125      -0.02160866       0.00022450      -0.00037836
C        2.36555138       0.00000000       4.93752375       0.01302234      -0.01718847       0.01011829
O        3.08119932       0.00000000       1.64584125      -0.01645308      -0.01256027       0.00186615
O        3.63093668       0.00000000       4.93752375       0.09375740      -0.08414912       0.08331115
O        5.07079054       0.00000000       2.73973976      -0.01268004       0.00005311       0.03241969
O        5.07079054       0.00000000       0.55194274      -0.01208417      -0.00018837      -0.03205218
O        1.64134546       0.00000000       6.03142226       0.01173207      -0.00019626       0.03254619
O        1.64134546       0.00000000       3.84362524       0.01801981       0.00451043      -0.03926095
96
Lattice="-6.87164391 0.0 0.0 0.0 0.0 -9.15878714 0.0 -15.92961025 0.0" Properties=species:S:1:pos:R:3:forces:R:3 energy=-526.3514714022465 pbc="T T T"
Na      -5.13316164     -15.75289241      -6.72780471       0.07297356      -0.03501904      -0.01341520
Na      -5.17430423      -0.17671784      -2.14841114       0.00177616       0.00926797      -0.00500506
Na      -1.73848227      -7.78808729      -7.01037600       0.01610024       0.00611883      -0.02685116
Na      -1.69733968      -8.14152296      -2.43098243       0.01632283       0.02228512      -0.00027596
Na      -1.73848227      -0.17671784      -2.43098243       0.00252860       0.00894763       0.00541950
Na      -1.69733968     -15.75289241      -7.01037600      -0.00242901      -0.00915242       0.00549598
Na      -5.13316164      -8.14152296      -2.14841114      -0.09190579      -0.13702233      -0.03171873
Na      -5.17430423      -7.78808729      -6.72780471       0.00076370       0.00095503      -0.00091288
Na      -5.20833907     -11.95123931      -9.15033926      -0.00037717      -0.00304377      -0.00016553
Na      -5.09912680      -3.97837094      -4.57094569      -0.01251233       0.01661241       0.00840016
Na      -1.66330484      -3.98643419      -4.58784145       0.00134191      -0.00299218       0.00022868
Na      -1.77251711     -11.94317606      -0.00844788      -0.00035016       0.00289920       0.00028915
Na      -1.66330484      -3.97837094      -0.00844788       0.00132941       0.00303984       0.00020001
Na      -1.77251711     -11.95123931      -4.58784145       0.02056036      -0.02036481      -0.00973735
Na      -5.20833907     -11.94317606      -4.57094569      -0.00119862       0.00275755       0.00002328
Na      -5.09912680      -3.98643419      -9.15033926       0.00656774      -0.03329067      -0.01439410
H       -0.36194508     -12.92582816      -6.64420110      -0.00388617       0.00551929      -0.00268636
H       -3.07387687      -3.00378209      -2.06480753      -0.10371114      -0.07454643      -0.00402763
H       -6.50969883      -4.96102304      -7.09397961      -0.01172309       0.02583535       0.02120723
H       -3.79776704     -10.96858721      -2.51458604       0.00570456      -0.00591069       0.00512061
H       -6.50969883      -3.00378209      -2.51458604      -0.00731101      -0.03255179       0.00259296
H       -3.79776704     -12.92582816      -7.09397961      -0.00802701       0.06767398      -0.14228273
H       -0.36194508     -10.96858721      -2.06480753      -0.00374169      -0.00550791      -0.00224650
H       -3.07387687      -4.96102304      -6.64420110       0.01297880       0.01126695      -0.00768795
H       -6.56607620     -14.27106383      -4.42703944      -0.00237115       0.00351323       0.01539699
H       -3.74138967      -1.65854642      -9.00643301       0.00876253       0.00758758       0.00123646
H       -0.30556771      -6.30625871      -0.15235413       0.04023663      -0.06160361      -0.04255270
H       -3.13025424      -9.62335154      -4.73174770       0.00481943      -0.02848154      -0.01217462
H       -0.30556771      -1.65854642      -4.73174770       0.07924215       0.01462854      -0.02604054
H       -3.13025424     -14.27106383      -0.15235413      -0.03421472       0.11803479       0.01213864
H       -6.56607620      -9.62335154      -9.00643301      -0.00228975      -0.00324904       0.01578775
H       -3.74138967      -6.30625871      -4.42703944       0.00207640       0.00270735       0.01542721
H       -6.57768735     -14.62188722      -0.26980541       0.02094403       0.00576293      -0.00802085
H       -3.72977851      -1.30772303      -4.84919898      -0.02125791      -0.00580332      -0.00833136
H       -0.29395656      -6.65708209      -4.30958816       0.04011652       0.11051276      -0.05265169
H       -3.14186540      -9.27252816      -8.88898173       0.02077898      -0.00567990       0.00818769
H       -0.29395656      -1.30772303      -8.88898173      -0.02046732      -0.00596346       0.00853989
H       -3.14186540     -14.62188722      -4.30958816      -0.08951890       0.01598487      -0.10117218
H       -6.57768735      -9.27252816      -4.84919898       0.02044033      -0.00625246      -0.00815443
H       -3.72977851      -6.65708209      -0.26980541      -0.02853369       0.00631638      -0.00189634
C       -0.02779161     -10.54366391      -6.85120892      -0.01055991       0.00081215      -0.00742759
C       -3.40803035      -5.38594634      -2.27181535      -0.01773646      -0.00907355      -0.00133549
C       -6.84385230      -2.57885878      -6.88697179      -0.00665380       0.00778670      -0.00218128
C       -3.46361356     -13.35075147      -2.30757822      -0.02426711      -0.02661140      -0.01781828
C       -6.84385230      -5.38594634      -2.30757822      -0.00663509      -0.00685982      -0.00218417
C       -3.46361356     -10.54366391      -6.88697179       0.00704672       0.00763813      -0.00177679
C       -0.02779161     -13.35075147      -2.27181535       0.00705544      -0.00693116       0.00189622
C       -3.40803035      -2.57885878      -6.85120892      -0.00676099       0.00718350       0.00158448
O       -0.08667383     -11.65822703      -7.52104873      -0.00680063      -0.03277117      -0.00929391
O       -3.34914812      -4.27138322      -2.94165516       0.00740414       0.03352979      -0.00914177
O       -6.78497008      -3.69342191      -6.21713198       0.06445464      -0.05089413      -0.04359293
O       -3.52249579     -12.23618834      -1.63773841      -0.00472681       0.03585621       0.01933316
O       -6.78497008      -4.27138322      -1.63773841       0.00740123       0.03287673       0.00962946
O       -3.52249579     -11.65822703      -6.21713198      -0.00700095      -0.03342498       0.00891396
O       -0.08667383     -12.23618834      -2.94165516       0.04914665       0.05095911       0.05708089
O       -3.34914812      -3.69342191      -7.52104873       0.00759684      -0.03325899      -0.00944573
O       -6.82612552      -9.40815095      -7.48319802       0.01790927       0.01558082       0.03842993
O       -3.48134034      -6.52145930      -2.90380445      -0.00632433      -0.01629650       0.03438205
O       -0.04551839      -1.44334582      -6.25498269      -0.00614986       0.01585886      -0.03421385
O       -3.39030357     -14.48626443      -1.67558912      -0.00072683      -0.02208236      -0.05819866
O       -0.04551839      -6.52145930      -1.67558912       0.04791325      -0.11628110       0.06533552
O       -3.39030357      -9.40815095      -6.25498269       0.00585203       0.01612806      -0.03462058
O       -6.82612552     -14.48626443      -2.90380445      -0.00366447      -0.01923395       0.01945008
O       -3.48134034      -1.44334582      -7.48319802       0.04296069       0.10811715      -0.06131286
O       -0.04147669     -10.58198752      -5.55212390       0.00490149       0.02276473      -0.01519563
O       -3.39434526      -5.34762273      -0.97273033      -0.01093092       0.06162798      -0.05246578
O       -6.83016722      -2.61718240      -8.18605681      -0.01906618       0.04034059       0.01263697
O       -3.47729865     -13.31242785      -3.60666324       0.00536633      -0.02233882       0.01472185
O       -6.83016722      -5.34762273      -3.60666324      -0.00552213      -0.02271609       0.01493471
O       -3.47729865     -10.58198752      -8.18605681      -0.00042196       0.02606370       0.02239376
O       -0.04147669     -13.31242785      -0.97273033       0.01470321      -0.02585647      -0.01227831
O       -3.39434526      -2.61718240      -5.55212390       0.00071986       0.03080654      -0.01352805
O       -0.65802697     -13.72992605      -6.06323560      -0.06106616       0.01489087      -0.12178008
O       -2.77779498      -2.19968420      -1.48384203      -0.00907182      -0.00586371      -0.00035852
O       -6.21361694      -5.76512093      -7.67494511      -0.00837665       0.00529779       0.00066652
O       -4.09384893     -10.16448932      -3.09555154       0.06281175      -0.06271124       0.01458950
O       -6.21361694      -2.19968420      -3.09555154      -0.01079923      -0.00108061       0.00905899
O       -4.09384893     -13.72992605      -7.67494511       0.00866598       0.00603385       0.00045108
O       -0.65802697     -10.16448932      -1.48384203       0.00851733      -0.00549503      -0.00082925
O       -2.77779498      -5.76512093      -6.06323560      -0.00831739       0.00573513      -0.00063570
O       -6.25824579     -14.09093085      -5.40009719      -0.00658042       0.00463794      -0.00281361
O       -4.04922007      -1.83867940      -0.82070362       0.02609627      -0.00005349       0.01185605
O       -0.61339812      -6.12612572      -8.33808352       0.00579226       0.00412349       0.00255791
O       -2.82242384      -9.80348453      -3.75868995      -0.06002736      -0.06331391      -0.00266562
O       -0.61339812      -1.83867940      -3.75868995       0.00632657      -0.00462823       0.00300169
O       -2.82242384     -14.09093085      -8.33808352      -0.00621790       0.00480944       0.00272930
O       -6.25824579      -9.80348453      -0.82070362      -0.00586069      -0.00431196      -0.00293020
O       -4.04922007      -6.12612572      -5.40009719       0.01022460      -0.02206859       0.00970709
O       -6.28405115     -15.51105130      -8.98381144       0.01721556       0.01802661      -0.04070645
O       -4.02341471      -0.41855895      -4.40441787      -0.01498954      -0.02134722      -0.10278168
O       -0.58759276      -7.54624617      -4.75436927       0.01034768      -0.00662656       0.03190616
O       -2.84822920      -8.38336408      -0.17497570      -0.01180216       0.01931828       0.03827219
O       -0.58759276      -0.41855895      -0.17497570       0.01042422       0.00599366       0.03232732
O       -2.84822920     -15.51105130      -4.75436927      -0.03656137      -0.07359593      -0.00202936
O       -6.28405115      -8.38336408      -4.40441787       0.00590246      -0.00117150      -0.03470824
O       -4.02341471      -7.54624617      -8.98381144       0.02823282      -0.00265163       0.04584990
96
Lattice="-6.8685476 0.0 0.0 0.0 0.0 -9.15739406 0.0 -15.92918335 0.0" Properties=species:S:1:pos:R:3:forces:R:3 energy=-526.3485212487799 pbc="T T T"
Na      -5.13010000     -15.75337104      -6.72692809      -0.00350420      -0.00790250      -0.00437389
Na      -5.17272140      -0.17581231      -2.14823106       0.00155951       0.02038499       0.00553228
Na      -1.73844760      -7.78877937      -7.00916300       0.00748010      -0.01501932       0.01027165
Na      -1.69582620      -8.14040398      -2.43046597      -0.01210286       0.03312225       0.02732608
Na      -1.73844760      -0.17581231      -2.43046597       0.00400534       0.00816528       0.00445895
Na      -1.69582620     -15.75337104      -7.00916300      -0.00391338      -0.00810355       0.00449704
Na      -5.13010000      -8.14040398      -2.14823106      -0.01364292       0.01294992      -0.01260617
Na      -5.17272140      -7.78877937      -6.72692809       0.00350932      -0.00856995      -0.00389796
Na      -5.20608448     -11.95104232      -9.14907118       0.00071577      -0.00176779       0.00080585
Na      -5.09673692      -3.97814103      -4.57037415      -0.00099503       0.00153892       0.00167195
Na      -1.66246312      -3.98645065      -4.58701991      -0.06437978       0.06916353       0.11419294
Na      -1.77181068     -11.94273270      -0.00832288       0.05764573       0.09084743      -0.00763614
Na      -1.66246312      -3.97814103      -0.00832288      -0.00028200       0.00181565      -0.00120901
Na      -1.77181068     -11.95104232      -4.58701991       0.01828047      -0.07959070      -0.00296691
Na      -5.20608448     -11.94273270      -4.57037415       0.00455498       0.00486609       0.01353857
Na      -5.09673692      -3.98645065      -9.14907118      -0.00041797      -0.00116563       0.00117787
H       -0.36198414     -12.92548558      -6.64242485       0.01032507       0.02384322      -0.01953044
H       -3.07228966      -3.00369777      -2.06372782      -0.04814780       0.04581418      -0.00742329
H       -6.50656346      -4.96089391      -7.09366624       0.01610343       0.09705973      -0.01708031
H       -3.79625794     -10.96828944      -2.51496921       0.01061329      -0.02378311       0.01878893
H       -6.50656346      -3.00369777      -2.51496921      -0.01046144      -0.02410257       0.01889266
H       -3.79625794     -12.92548558      -7.09366624       0.00076605       0.02554820       0.03995051
H       -0.36198414     -10.96828944      -2.06372782      -0.00669925       0.03224085       0.03499824
H       -3.07228966      -4.96089391      -6.64242485      -0.01053160       0.02356397      -0.01895522
H       -6.56292361     -14.27032489      -4.42678832      -0.10207837       0.10401857       0.00814989
H       -3.73989779      -1.65885846      -9.00548535       0.01310474      -0.00065696       0.02881600
H       -0.30562399      -6.30573321      -0.15190871       0.00408535      -0.00678491      -0.06131975
H       -3.12864981      -9.62345014      -4.73060574      -0.00670609       0.00921256      -0.03339238
H       -0.30562399      -1.65885846      -4.73060574      -0.02756169       0.11334511      -0.10511959
H       -3.12864981     -14.27032489      -0.15190871      -0.01333974       0.00027432      -0.02885341
H       -6.56292361      -9.62345014      -9.00548535      -0.00300222      -0.00239913      -0.00779005
H       -3.73989779      -6.30573321      -4.42678832       0.01418376      -0.00890495      -0.00052681
H       -6.57481361     -14.62146589      -0.27000412       0.01881436       0.00865229      -0.00310685
H       -3.72800779      -1.30771746      -4.84870115       0.01260531      -0.06867623       0.09938105
H       -0.29373399      -6.65687422      -4.30869291      -0.04294315      -0.08359798       0.04203536
H       -3.14053981      -9.27230913      -8.88738994       0.01867238      -0.00910185       0.00373527
H       -0.29373399      -1.30771746      -8.88738994      -0.01886753      -0.00914464       0.00349760
H       -3.14053981     -14.62146589      -4.30869291       0.01956574       0.00794573      -0.00746794
H       -6.57481361      -9.27230913      -4.84870115      -0.00889556      -0.00603956      -0.02270744
H       -3.72800779      -6.65687422      -0.27000412      -0.07294086      -0.04960493      -0.00097905
C       -0.02801598     -10.54329198      -6.84983579       0.01058426       0.01597217      -0.02993504
C       -3.40625782      -5.38589137      -2.27113876      -0.02667008       0.04978619      -0.07269488
C       -6.84053162      -2.57870031      -6.88625530      -0.02029722       0.01369792       0.02678896
C       -3.46228978     -13.35048304      -2.30755827       0.00958932      -0.02183719       0.02144090
C       -6.84053162      -5.38589137      -2.30755827      -0.01135437      -0.01627722       0.02960813
C       -3.46228978     -10.54329198      -6.88625530       0.02146995       0.02624470       0.02896079
C       -0.02801598     -13.35048304      -2.27113876       0.03814189      -0.09033245      -0.01799689
C       -3.40625782      -2.57870031      -6.84983579      -0.01061656       0.01612473      -0.02979581
O       -0.08609663     -11.65735804      -7.51920412      -0.01225456      -0.08101862      -0.02975162
O       -3.34817717      -4.27182531      -2.94050709       0.01210804       0.08103954      -0.02983599
O       -6.78245097      -3.69276636      -6.21688697       0.01198058      -0.08109267       0.03017790
O       -3.52037043     -12.23641699      -1.63818994      -0.06783778       0.04995318      -0.01828795
O       -6.78245097      -4.27182531      -1.63818994      -0.03438572       0.10886566       0.08886572
O       -3.52037043     -11.65735804      -6.21688697       0.02369773      -0.15939495       0.01594911
O       -0.08609663     -12.23641699      -2.94050709      -0.07899182       0.06547643       0.01130095
O       -3.34817717      -3.69276636      -7.51920412       0.01510407      -0.07149936      -0.01979115
O       -6.82339006      -9.40860337      -7.48295476      -0.08710837       0.05781920       0.16110307
O       -3.47943134      -6.52057998      -2.90425773      -0.01138307      -0.05034706       0.03321632
O       -0.04515754      -1.44401169      -6.25313633      -0.00592097       0.04722024      -0.04078581
O       -3.38911626     -14.48517166      -1.67443930       0.00079766      -0.03589558      -0.03766379
O       -0.04515754      -6.52057998      -1.67443930       0.01525098      -0.06074279      -0.01599801
O       -3.38911626      -9.40860337      -6.25313633       0.05039482      -0.05640947      -0.08887140
O       -6.82339006     -14.48517166      -2.90425773       0.00601247      -0.04753965       0.04167816
O       -3.47943134      -1.44401169      -7.48295476      -0.08313442       0.02722731       0.03363982
O       -0.04200289     -10.58126684      -5.55155614       0.00565730       0.03805751       0.02454121
O       -3.39227091      -5.34791651      -0.97285911       0.01168440       0.00546504       0.14257399
O       -6.82654471      -2.61667516      -8.18453495      -0.00609231       0.03764068      -0.02494460
O       -3.47627669     -13.31250819      -3.60583792       0.00578933      -0.03727458      -0.02413538
O       -6.82654471      -5.34791651      -3.60583792       0.01987767      -0.05809495      -0.01384501
O       -3.47627669     -10.58126684      -8.18453495       0.01060422      -0.01751472      -0.08232257
O       -0.04200289     -13.31250819      -0.97285911       0.00642014      -0.04818722       0.03370155
O       -3.39227091      -2.61667516      -5.55155614      -0.00609357       0.03716449       0.02450071
O       -0.65678907     -13.72977936      -6.06311574      -0.05361942      -0.00597905      -0.01625584
O       -2.77748473      -2.19940399      -1.48441871       0.04695005       0.02055436       0.00420377
O       -6.21175853      -5.76518768      -7.67297535       0.03523530      -0.05843601      -0.00194448
O       -4.09106287     -10.16399567      -3.09427832      -0.04658453       0.02069634      -0.00402673
O       -6.21175853      -2.19940399      -3.09427832       0.04720682       0.02072131      -0.00442454
O       -4.09106287     -13.72977936      -7.67297535      -0.01691892      -0.09507780       0.00032503
O       -0.65678907     -10.16399567      -1.48441871      -0.04563551       0.01788625      -0.00509665
O       -2.77748473      -5.76518768      -6.06311574       0.03012783       0.00305394       0.02277899
O       -6.25613464     -14.09134506      -5.39974532       0.03645348      -0.01352991      -0.03698856
O       -4.04668676      -1.83783829      -0.82104829      -0.04361383       0.00847688       0.02319663
O       -0.61241296      -6.12675338      -8.33634577      -0.04656799      -0.00579123       0.01370815
O       -2.82186084      -9.80242997      -3.75764874       0.04623933       0.00497733       0.01352526
O       -0.61241296      -1.83783829      -3.75764874      -0.04764529      -0.00340937       0.00419985
O       -2.82186084     -14.09134506      -8.33634577       0.04691876      -0.00498567       0.01351201
O       -6.25613464      -9.80242997      -0.82104829       0.04648760       0.00574117      -0.01318599
O       -4.04668676      -6.12675338      -5.39974532      -0.02507021       0.07123483      -0.00493997
O       -6.28194712     -15.50972399      -8.98031707      -0.02013259      -0.00781471      -0.02634794
O       -4.02087428      -0.41945936      -4.40162004       0.09897271      -0.07512634      -0.03081318
O       -0.58660048      -7.54513231      -4.75577402       0.01966648      -0.00705316       0.02669022
O       -2.84767332      -8.38405104      -0.17707699      -0.03657299       0.01486510       0.03262487
O       -0.58660048      -0.41945936      -0.17707699       0.02282913       0.00082247       0.03358846
O       -2.84767332     -15.50972399      -4.75577402      -0.01249348       0.00286014      -0.00140195
O       -6.28194712      -8.38405104      -4.40162004      -0.02024952       0.00784777      -0.02665109
O       -4.02087428      -7.54513231      -8.98031707       0.02869765       0.07850151      -0.16802020
96
Lattice="-6.86642312 0.0 0.0 0.0 0.0 -9.15737068 0.0 -15.93252391 0.0" Properties=species:S:1:pos:R:3:forces:R:3 energy=-526.345838124027 pbc="T T T"
Na      -5.12727453     -15.75850713      -6.72728206      -0.00381426       0.01543198      -0.00287097
Na      -5.17236015      -0.17401678      -2.14859672       0.02617617      -0.01925355       0.00190613
Na      -1.73914859      -7.79224518      -7.00877396       0.03544175      -0.00144651      -0.01289925
Na      -1.69406297      -8.14027873      -2.43008862       0.01104238      -0.01206677       0.00251838
Na      -1.73914859      -0.17401678      -2.43008862       0.00587852      -0.03311191      -0.00754549
Na      -1.69406297     -15.75850713      -7.00877396      -0.01286226       0.00637304      -0.01296738
Na      -5.12727453      -8.14027873      -2.14859672      -0.01129935      -0.00964495       0.00028508
Na      -5.17236015      -7.79224518      -6.72728206       0.06507311      -0.04059861      -0.03195620
Na      -5.20462019     -11.95381134      -9.14923518       0.00577458       0.01453839       0.01671727
Na      -5.09501449      -3.97871257      -4.57054984      -0.00167815      -0.00027434       0.01612075
Na      -1.66180293      -3.98754939      -4.58682084      -0.00218140       0.01617710      -0.00427296
Na      -1.77140863     -11.94497452      -0.00813550      -0.05003758      -0.08103106       0.01885600
Na      -1.66180293      -3.97871257      -0.00813550      -0.00543340      -0.00555081       0.01422152
Na      -1.77140863     -11.95381134      -4.58682084      -0.00801051      -0.00396451      -0.00653451
Na      -5.20462019     -11.94497452      -4.57054984      -0.01034926      -0.01050959       0.00103141
Na      -5.09501449      -3.98754939      -9.14923518       0.01950055       0.00468542      -0.01770310
H       -0.36194447     -12.92755861      -6.64155680       0.00201328       0.01795854      -0.05021193
H       -3.07126709      -3.00496530      -2.06287146      -0.15876117      -0.06768890      -0.00426611
H       -6.50447865      -4.96129665      -7.09449922       0.01757635      -0.01809969      -0.12016501
H       -3.79515603     -10.97122726      -2.51581388       0.01432897      -0.02040254       0.02511232
H       -6.50447865      -3.00496530      -2.51581388       0.11013669      -0.06496855       0.11318381
H       -3.79515603     -12.92755861      -7.09449922       0.01440218       0.02028255       0.02499720
H       -0.36194447     -10.97122726      -2.06287146       0.09142659      -0.00186134      -0.01738131
H       -3.07126709      -4.96129665      -6.64155680       0.02734689       0.03593036      -0.09165286
H       -6.56089462     -14.27267245      -4.42676154      -0.00630451      -0.00151620       0.00487796
H       -3.73874006      -1.65985146      -9.00544688      -0.00106835       0.01378014      -0.02965116
H       -0.30552850      -6.30641050      -0.15192380       0.00679358      -0.00109463      -0.00506613
H       -3.12768306      -9.62611341      -4.73060914      -0.00711692       0.00181320      -0.00514283
H       -0.30552850      -1.65985146      -4.73060914       0.01540190      -0.15004170      -0.04843209
H       -3.12768306     -14.27267245      -0.15192380      -0.00681756      -0.00124859      -0.00556130
H       -6.56089462      -9.62611341      -9.00544688      -0.08826496       0.03672074      -0.03352982
H       -3.73874006      -6.30641050      -4.42676154       0.00704229      -0.00125336       0.00535864
H       -6.57244353     -14.62423857      -0.27052210       0.00660464       0.00713518       0.00192544
H       -3.72719115      -1.30828534      -4.84920744      -0.09145308      -0.03688309       0.04698726
H       -0.29397959      -6.65797662      -4.30816324      -0.00695030       0.00730272      -0.00251119
H       -3.13923197      -9.27454729      -8.88684858       0.00681366      -0.00743928      -0.00242129
H       -0.29397959      -1.30828534      -8.88684858      -0.00061829      -0.01422198       0.00115379
H       -3.13923197     -14.62423857      -4.30816324       0.01215977       0.02872344       0.00927662
H       -6.57244353      -9.27454729      -4.84920744       0.00610240       0.01769017      -0.00235527
H       -3.72719115      -6.65797662      -0.27052210      -0.05490476      -0.02669167      -0.14133371
C       -0.02813249     -10.54491147      -6.85003268      -0.00714659       0.01547675      -0.09190079
C       -3.40507907      -5.38761244      -2.27134734      -0.01614641       0.04055305      -0.03473621
C       -6.83829063      -2.57864952      -6.88602334       0.07207614      -0.04447511       0.02876096
C       -3.46134405     -13.35387439      -2.30733800      -0.01218211       0.02857263       0.05855240
C       -6.83829063      -5.38761244      -2.30733800      -0.00607291       0.00415729       0.03082227
C       -3.46134405     -10.54491147      -6.88602334       0.00711868      -0.03177928       0.02924219
C       -0.02813249     -13.35387439      -2.27134734       0.00715396       0.03214727      -0.02973492
C       -3.40507907      -2.57864952      -6.85003268       0.02975092      -0.03085442      -0.03544556
O       -0.08544124     -11.66100071      -7.51874271      -0.01046024      -0.01563550      -0.00514709
O       -3.34777032      -4.27152320      -2.94005737       0.01073153       0.01568516      -0.00556133
O       -6.78098188      -3.69473875      -6.21731331       0.01079761      -0.01562768       0.00550856
O       -3.51865280     -12.23778516      -1.63862797       0.00917445       0.00645835      -0.13374822
O       -6.78098188      -4.27152320      -1.63862797       0.11085624       0.05569745       0.13616300
O       -3.51865280     -11.66100071      -6.21731331      -0.00995851      -0.01530045       0.00568366
O       -0.08544124     -12.23778516      -2.94005737      -0.01044171       0.01495191      -0.00587513
O       -3.34777032      -3.69473875      -7.51874271       0.01047854      -0.01578309      -0.00558823
O       -6.82172422      -9.41055799      -7.48342658       0.01196614       0.04871901       0.00165516
O       -3.47791046      -6.52196592      -2.90474124      -0.00665886      -0.03403477       0.03546192
O       -0.04469890      -1.44429604      -6.25262944       0.06467172       0.01054072      -0.00725563
O       -3.38851266     -14.48822787      -1.67394410      -0.07247352      -0.04360230      -0.02718552
O       -0.04469890      -6.52196592      -1.67394410      -0.01098433      -0.03249026      -0.02606768
O       -3.38851266      -9.41055799      -6.25262944       0.00686220       0.03422127      -0.03536754
O       -6.82172422     -14.48822787      -2.90474124       0.00615816      -0.03433660       0.03511341
O       -3.47791046      -1.44429604      -7.48342658       0.00767651       0.02410142       0.02706237
O       -0.04280796     -10.58168932      -5.55137585      -0.02619474       0.08124009       0.03479126
O       -3.39040360      -5.35083459      -0.97269051      -0.00843983      -0.01735909       0.00158873
O       -6.82361516      -2.61542736      -8.18468017      -0.00040141       0.00747141      -0.00168945
O       -3.47601952     -13.31709655      -3.60599483       0.00799278      -0.01673949      -0.00108574
O       -6.82361516      -5.35083459      -3.60599483      -0.05091878      -0.01435343       0.06622058
O       -3.47601952     -10.58168932      -8.18468017       0.00821339       0.01726413      -0.00080776
O       -0.04280796     -13.31709655      -0.97269051       0.00804988      -0.02671704      -0.00175407
O       -3.39040360      -2.61542736      -5.55137585       0.02315568      -0.03349943       0.10143438
O       -0.65616350     -13.73362164      -6.06442002      -0.06020113      -0.01298446       0.01079433
O       -2.77704806      -2.19890227      -1.48573468       0.06031464       0.01388041       0.01117776
O       -6.21025962      -5.76735968      -7.67163600       0.00093003      -0.04366391       0.03340165
O       -4.08937506     -10.16516423      -3.09295066      -0.06003642       0.01313137      -0.01117096
O       -6.21025962      -2.19890227      -3.09295066       0.05995409       0.01330103      -0.01122728
O       -4.08937506     -13.73362164      -7.67163600      -0.05730324      -0.01448581       0.06903291
O       -0.65616350     -10.16516423      -1.48573468      -0.06077176       0.01340402       0.01106027
O       -2.77704806      -5.76735968      -6.06442002       0.06061201      -0.01331695       0.01126736
O       -6.25421215     -14.09586159      -5.40093573       0.05636717      -0.02270567       0.03161117
O       -4.04542253      -1.83666232      -0.82225039      -0.05523505      -0.00902987       0.03987081
O       -0.61221097      -6.12959963      -8.33512029      -0.04979108      -0.01077454      -0.02609327
O       -2.82100059      -9.80292428      -3.75643495       0.04836577      -0.00067717      -0.02145917
O       -0.61221097      -1.83666232      -3.75643495      -0.05618455       0.01453524      -0.03786001
O       -2.82100059     -14.09586159      -8.33512029       0.04834946      -0.00016811      -0.02146975
O       -6.25421215      -9.80292428      -0.82225039       0.04823904      -0.00038922       0.02073777
O       -4.04542253      -6.12959963      -5.40093573      -0.04865089       0.00060777       0.02141560
O       -6.28184614     -15.51154441      -8.97720271      -0.01923383      -0.11082642      -0.03560983
O       -4.01778854      -0.42097950      -4.39851737       0.00320456       0.02563707      -0.04030208
O       -0.58457698      -7.54528245      -4.75885331       0.00542340      -0.04657856       0.01610798
O       -2.84863458      -8.38724146      -0.18016797       0.02798190      -0.04815289       0.04328561
O       -0.58457698      -0.42097950      -0.18016797       0.00306063       0.02502524       0.03987682
O       -2.84863458     -15.51154441      -4.75885331      -0.02291706      -0.01423299       0.04759873
O       -6.28184614      -8.38724146      -4.39851737       0.00033717       0.03245752      -0.00767181
O       -4.01778854      -7.54528245      -8.97720271       0.02348604      -0.04257265      -0.03655752
96
Lattice="-6.86444379 0.0 0.0 0.0 0.0 -9.15734889 0.0 -15.93563625 0.0" Properties=species:S:1:pos:R:3:forces:R:3 energy=-526.3442566519749 pbc="T T T"
Na      -5.12464248     -15.76329282      -6.72761184      -0.04393023      -0.02184901      -0.04439145
Na      -5.17202320      -0.17234343      -2.14893739       0.02562188      -0.03763999       0.00572313
Na      -1.73980131      -7.79547470      -7.00841150      -0.04207776       0.06753660      -0.03534588
Na      -1.69242059      -8.14016155      -2.42973705      -0.02589369      -0.03752679      -0.00612803
Na      -1.73980131      -0.17234343      -2.42973705       0.03480378      -0.04171811      -0.00874981
Na      -1.69242059     -15.76329282      -7.00841150      -0.15759085       0.07129349      -0.07829204
Na      -5.12464248      -8.14016155      -2.14893739      -0.03026401      -0.04650166       0.00304873
Na      -5.17202320      -7.79547470      -6.72761184       0.02620883       0.03736322       0.00579594
Na      -5.20325588     -11.95639139      -9.14938804       0.01391039       0.03444303      -0.00284096
Na      -5.09340981      -3.97924486      -4.57071360      -0.00431118      -0.00613704       0.00434787
Na      -1.66118791      -3.98857326      -4.58663529       0.00286219       0.00890465      -0.01364790
Na      -1.77103398     -11.94706299      -0.00796085       0.02682703      -0.10584319      -0.05418705
Na      -1.66118791      -3.97924486      -0.00796085      -0.00414947      -0.00602401      -0.00417545
Na      -1.77103398     -11.95639139      -4.58663529       0.01294349       0.00377905       0.00300781
Na      -5.20325588     -11.94706299      -4.57071360       0.10489977      -0.11865822       0.03968385
Na      -5.09340981      -3.98857326      -9.14938804      -0.00423788       0.00570842       0.00453978
H       -0.36190748     -12.92948986      -6.64074806       0.02291758       0.02398076      -0.04284322
H       -3.07031441      -3.00614639      -2.06207362       0.08813350       0.07664702      -0.09096549
H       -6.50253631      -4.96167174      -7.09527527      -0.01678866       0.01597586       0.03022238
H       -3.79412938     -10.97396451      -2.51660083       0.01684138      -0.01651807       0.03021134
H       -6.50253631      -3.00614639      -2.51660083      -0.01714358      -0.01583479       0.03085594
H       -3.79412938     -12.92948986      -7.09527527       0.01703836       0.01610297       0.03106645
H       -0.36190748     -10.97396451      -2.06207362       0.01726747      -0.01587423      -0.03082254
H       -3.07031441      -4.96167174      -6.64074806      -0.01681859       0.01577573      -0.03060010
H       -6.55900425     -14.27485962      -4.42673654      -0.00513596       0.00831487      -0.01803315
H       -3.73766143      -1.66077663      -9.00541098       0.00106384       0.00344535      -0.01657411
H       -0.30543954      -6.30704149      -0.15193791       0.00089739      -0.00358197       0.01659016
H       -3.12678236      -9.62859476      -4.73061235       0.01354788       0.01140582       0.00853845
H       -0.30543954      -1.66077663      -4.73061235       0.00835955       0.01730681       0.00152831
H       -3.12678236     -14.27485962      -0.15193791      -0.00134671      -0.00425740       0.01607381
H       -6.55900425      -9.62859476      -9.00541098      -0.04972416      -0.01074193      -0.08412376
H       -3.73766143      -6.30704149      -4.42673654      -0.00096731      -0.00463018      -0.00111665
H       -6.57023551     -14.62682173      -0.27100478      -0.16573565       0.03396257       0.05210991
H       -3.72643017      -1.30881452      -4.84967923      -0.09545626       0.03014428      -0.03547778
H       -0.29420828      -6.65900360      -4.30766966      -0.01136444       0.01344547      -0.03926974
H       -3.13801362      -9.27663265      -8.88634411      -0.00452869      -0.00493270      -0.00781198
H       -0.29420828      -1.30881452      -8.88634411      -0.01932626       0.05593714       0.12725348
H       -3.13801362     -14.62682173      -4.30766966      -0.02531151       0.00617957      -0.03224314
H       -6.57023551      -9.27663265      -4.84967923       0.06263569      -0.04086662      -0.01819714
H       -3.72643017      -6.65900360      -0.27100478       0.00391409       0.00484175       0.00811219
C       -0.02824101     -10.54642032      -6.85021610       0.00669025      -0.07958992      -0.03108834
C       -3.40398089      -5.38921593      -2.27154165      -0.00367729       0.07260333      -0.02359576
C       -6.83620278      -2.57860219      -6.88580724       0.00208087      -0.06292404       0.04943174
C       -3.46046290     -13.35703406      -2.30713279      -0.07991720      -0.02138047       0.06583645
C       -6.83620278      -5.38921593      -2.30713279      -0.02513222       0.06505545       0.00195037
C       -3.46046290     -10.54642032      -6.88580724       0.02736326      -0.07126021       0.03030549
C       -0.02824101     -13.35703406      -2.27154165       0.01107339       0.06909322      -0.02987624
C       -3.40398089      -2.57860219      -6.85021610      -0.00457155      -0.07259299      -0.02328139
O       -0.08483087     -11.66439476      -7.51831274      -0.01397669       0.04652945       0.02209722
O       -3.34739103      -4.27124149      -2.93963830      -0.00267602      -0.04358165       0.00084002
O       -6.77961292      -3.69657663      -6.21771059       0.01173466       0.04764423      -0.01032692
O       -3.51705276     -12.23905962      -1.63903615      -0.01222379      -0.04747867      -0.01043405
O       -6.77961292      -4.27124149      -1.63903615       0.01176032      -0.04682687      -0.01057714
O       -3.51705276     -11.66439476      -6.21771059      -0.01715835       0.06286803       0.02010165
O       -0.08483087     -12.23905962      -2.93963830      -0.10085552       0.08526467       0.06238726
O       -3.34739103      -3.69657663      -7.51831274      -0.00884884      -0.00667814      -0.04461008
O       -6.82017204      -9.41237909      -7.48386618      -0.00349057       0.03815104       0.03721326
O       -3.47649364      -6.52325716      -2.90519174      -0.00888872      -0.01998196       0.03114419
O       -0.04427175      -1.44456096      -6.25215715      -0.00929245       0.02018033      -0.03059465
O       -3.38795015     -14.49107529      -1.67348271       0.00892653      -0.02077130      -0.03090134
O       -0.04427175      -6.52325716      -1.67348271      -0.10827448       0.03504903      -0.14295159
O       -3.38795015      -9.41237909      -6.25215715       0.00922071       0.02023031      -0.03107408
O       -6.82017204     -14.49107529      -2.90519174       0.00917006      -0.02011616       0.03108584
O       -3.47649364      -1.44456096      -7.48386618      -0.03255512       0.01512964       0.01417244
O       -0.04355778     -10.58208252      -5.55120788      -0.00831738       0.00933074      -0.00833274
O       -3.38866412      -5.35355373      -0.97253344      -0.01381240       0.01429987      -0.01958532
O       -6.82088601      -2.61426439      -8.18481545      -0.01214716      -0.01984354       0.02717784
O       -3.47577967     -13.32137186      -3.60614101       0.01378757       0.01393267       0.01954250
O       -6.82088601      -5.35355373      -3.60614101       0.02453234       0.06997140      -0.02313786
O       -3.47577967     -10.58208252      -8.18481545      -0.00413079      -0.00567425       0.02899434
O       -0.04355778     -13.32137186      -0.97253344       0.01399100       0.01425718      -0.01967213
O       -3.38866412      -2.61426439      -5.55120788      -0.01417570      -0.01463095      -0.01920979
O       -0.65558088     -13.73720161      -6.06563514      -0.05258736      -0.01813565       0.09767424
O       -2.77664102      -2.19843464      -1.48696070       0.07124023       0.00280583       0.02131806
O       -6.20886291      -5.76938348      -7.67038819       0.07130970       0.00751782      -0.02207329
O       -4.08780277     -10.16625277      -3.09171375      -0.07225572      -0.00539810      -0.02743939
O       -6.20886291      -2.19843464      -3.09171375       0.07062788       0.00250072      -0.02097491
O       -4.08780277     -13.73720161      -7.67038819      -0.06146309       0.00867090      -0.02094841
O       -0.65558088     -10.16625277      -1.48696070      -0.07090054       0.00292213       0.02155952
O       -2.77664102      -5.76938348      -6.06563514       0.07055324      -0.00215113       0.02159955
O       -6.25242103     -14.10007007      -5.40204474       0.02575122      -0.00681899       0.05671887
O       -4.04424465      -1.83556618      -0.82337030      -0.03719852       0.02570423       0.05422917
O       -0.61202276      -6.13225194      -8.33397859      -0.04871442       0.00855876      -0.07351884
O       -2.82019914      -9.80338431      -3.75530415       0.04907000      -0.01203760      -0.05492170
O       -0.61202276      -1.83556618      -3.75530415      -0.04878092      -0.01245656      -0.05468620
O       -2.82019914     -14.10007007      -8.33397859       0.04857795       0.01191120      -0.05455786
O       -6.25242103      -9.80338431      -0.82337030       0.05033310      -0.00020853       0.03029715
O       -4.04424465      -6.13225194      -5.40204474      -0.06827804       0.01107072       0.05211650
O       -6.28175143     -15.51324022      -8.97430118       0.01690535      -0.08631706       0.02728012
O       -4.01491426      -0.42239603      -4.39562673      -0.01939921       0.04542075      -0.06280004
O       -0.58269236      -7.54542210      -4.76172216      -0.01926238      -0.04530663       0.06299471
O       -2.84952953      -8.39021415      -0.18304771       0.01901785       0.04561593       0.06219647
O       -0.58269236      -0.42239603      -0.18304771      -0.01931472       0.04513015       0.06285095
O       -2.84952953     -15.51324022      -4.76172216       0.14411221      -0.01076520      -0.02681202
O       -6.28175143      -8.39021415      -4.39562673       0.01864834       0.04524243      -0.06300980
O       -4.01491426      -7.54542210      -8.97430118      -0.03052970      -0.05502829      -0.09072486
96
Lattice="-6.86291168 0.0 0.0 0.0 0.0 -9.15608074 0.0 -15.93947771 0.0" Properties=species:S:1:pos:R:3:forces:R:3 energy=-526.3365323843221 pbc="T T T"
Na      -5.12238806     -15.76875937      -6.72707891      -0.03237714       0.03662333       0.00957654
Na      -5.17197946      -0.17071834      -2.14903854       0.02337793      -0.03338855       0.00734073
Na      -1.74052362      -7.79902051      -7.00704220       0.03299118       0.04077167       0.01908223
Na      -1.69093222      -8.14045720      -2.42900183      -0.01885115      -0.02031190      -0.01903866
Na      -1.74052362      -0.17071834      -2.42900183      -0.00576357      -0.04240535      -0.02009547
Na      -1.69093222     -15.76875937      -7.00704220      -0.02301129       0.03274373      -0.00690848
Na      -5.12238806      -8.14045720      -2.14903854      -0.02297884      -0.03288979       0.00689821
Na      -5.17197946      -7.79902051      -6.72707891       0.02349752       0.03248426       0.00736961
Na      -5.20219899     -11.95949214      -9.14826767      -0.00050937       0.00845128      -0.00632169
Na      -5.09216853      -3.97998557      -4.57022730      -0.01193879       0.02225395       0.02653357
Na      -1.66071269      -3.98975328      -4.58585344       0.00854602       0.00928305      -0.02616541
Na      -1.77074315     -11.94972443      -0.00781307       0.00233464      -0.00407819      -0.00256838
Na      -1.66071269      -3.97998557      -0.00781307       0.06072883      -0.06159677      -0.01471336
Na      -1.77074315     -11.95949214      -4.58585344       0.00213946       0.00407541      -0.00209411
Na      -5.20219899     -11.94972443      -4.57022730       0.15251055      -0.00453043      -0.05886218
Na      -5.09216853      -3.98975328      -9.14826767      -0.00240608       0.00457277       0.00191124
H       -0.36138659     -12.93106850      -6.63947829      -0.00680321      -0.03856497      -0.00494063
H       -3.07006925      -3.00840921      -2.06143792       0.00718933       0.03903919      -0.00448845
H       -6.50152509      -4.96132964      -7.09464282      -0.05987780      -0.03711887       0.04863204
H       -3.79284243     -10.97814807      -2.51660245      -0.03854500       0.04520397      -0.01005735
H       -6.50152509      -3.00840921      -2.51660245       0.02277089       0.02716052       0.03522839
H       -3.79284243     -12.93106850      -7.09464282      -0.00743350      -0.03880582       0.00535415
H       -0.36138659     -10.97814807      -2.06143792      -0.01464848       0.06541034       0.10744035
H       -3.07006925      -4.96132964      -6.63947829       0.00686481      -0.03898018      -0.00539327
H       -6.55758115     -14.27740477      -4.42662956      -0.10196773      -0.01836748       0.07767230
H       -3.73678637      -1.66207294      -9.00466993      -0.00418070       0.04259013       0.00336012
H       -0.30533053      -6.30766592      -0.15141081      -0.00055313      -0.02216681      -0.00133353
H       -3.12612531      -9.63181179      -4.72945118       0.01506923       0.09871005      -0.01765252
H       -0.30533053      -1.66207294      -4.72945118      -0.00026892       0.02160038      -0.00120606
H       -3.12612531     -14.27740477      -0.15141081       0.00048306      -0.02169643      -0.00150545
H       -6.55758115      -9.63181179      -9.00466993       0.00910738       0.00308568      -0.02952989
H       -3.73678637      -6.30766592      -4.42662956      -0.00076787      -0.02225805       0.00095411
H       -6.56836924     -14.62971696      -0.27153685      -0.01033223      -0.01635262       0.01631364
H       -3.72599828      -1.30976075      -4.84957722       0.04701182       0.00596271       0.02880227
H       -0.29454244      -6.65997810      -4.30650352       0.01338704      -0.00895910      -0.03497916
H       -3.13691340      -9.27949961      -8.88454389       0.05163230       0.15848178      -0.04795208
H       -0.29454244      -1.30976075      -8.88454389       0.00158133       0.01744670      -0.04791043
H       -3.13691340     -14.62971696      -4.30650352       0.00100372      -0.01389087      -0.00019000
H       -6.56836924      -9.27949961      -4.84957722       0.05051733       0.02215833      -0.03479594
H       -3.72599828      -6.65997810      -0.27153685       0.00262834      -0.00841581       0.01821828
C       -0.02829771     -10.55038780      -6.85037250       0.00295166       0.07528451       0.03213831
C       -3.40315813      -5.38908991      -2.27233213      -0.00332222      -0.07490274       0.03263574
C       -6.83461397      -2.58064894      -6.88374861       0.03142462       0.07194557      -0.02202037
C       -3.45975355     -13.35882877      -2.30570824       0.00272222      -0.07556015      -0.03257171
C       -6.83461397      -5.38908991      -2.30570824      -0.00282210      -0.07465818      -0.03231617
C       -3.45975355     -10.55038780      -6.88374861      -0.12204938       0.00581890      -0.06465524
C       -0.02829771     -13.35882877      -2.27233213      -0.00151976      -0.07364218       0.04145989
C       -3.40315813      -2.58064894      -6.85037250       0.01484845       0.19488324      -0.00677306
O       -0.08420230     -11.66756060      -7.51622338      -0.01233823       0.00391949      -0.02238454
O       -3.34725354      -4.27191711      -2.93818301       0.01188209      -0.00373179      -0.02313649
O       -6.77870938      -3.69782175      -6.21789773       0.01227185       0.00351639       0.02271408
O       -3.51565814     -12.24165596      -1.63985736      -0.01264128      -0.00392193       0.02310988
O       -6.77870938      -4.27191711      -1.63985736       0.01248907      -0.00373229       0.02253641
O       -3.51565814     -11.66756060      -6.21789773       0.08568262       0.08480542      -0.05758840
O       -0.08420230     -12.24165596      -2.93818301      -0.02252517       0.00231540      -0.00904840
O       -3.34725354      -3.69782175      -7.51622338       0.01175270       0.00408834      -0.02269114
O       -6.81906557      -9.41395723      -7.48260418      -0.00122507      -0.09260196      -0.05236575
O       -3.47530195      -6.52552048      -2.90456381       0.00909263       0.03539667       0.03281348
O       -0.04384611      -1.44421837      -6.25151693      -0.00813629      -0.05928168      -0.00038091
O       -3.38760973     -14.49525934      -1.67347656       0.00684064       0.04582391      -0.01191852
O       -0.04384611      -6.52552048      -1.67347656      -0.00625263       0.05145073      -0.00382196
O       -3.38760973      -9.41395723      -6.25151693       0.00674165      -0.04622614      -0.01240470
O       -6.81906557     -14.49525934      -2.90456381       0.00677365       0.04558994       0.01209204
O       -3.47530195      -1.44421837      -7.48260418      -0.00552786      -0.03097496       0.02203526
O       -0.04438389     -10.58225129      -5.55080171       0.01347703      -0.06143642      -0.02457133
O       -3.38707195      -5.35722642      -0.97276134      -0.02830225       0.07419942      -0.02234531
O       -6.81852779      -2.61251244      -8.18331940      -0.01594600      -0.05502443       0.01776864
O       -3.47583973     -13.32696527      -3.60527903       0.01648713       0.05524877       0.01771197
O       -6.81852779      -5.35722642      -3.60527903       0.01677851       0.04553042       0.00945285
O       -3.47583973     -10.58225129      -8.18331940       0.01138318      -0.04562894       0.00632948
O       -0.04438389     -13.32696527      -0.97276134       0.01659856       0.05483233      -0.01718998
O       -3.38707195      -2.61251244      -5.55080171      -0.00941636      -0.05620622      -0.02474556
O       -0.65707658     -13.74211694      -6.06618641       0.01790833       0.03820964       0.02172220
O       -2.77437926      -2.19736077      -1.48814604      -0.01716493      -0.05115308      -0.00820559
O       -6.20583510      -5.77237809      -7.66793470      -0.03001036       0.04700517      -0.00724842
O       -4.08853242     -10.16709962      -3.08989433      -0.04860461      -0.01103064      -0.05715596
O       -6.20583510      -2.19736077      -3.08989433      -0.01044191      -0.03130406      -0.01956050
O       -4.08853242     -13.74211694      -7.66793470       0.01737756       0.03782796      -0.02172729
O       -0.65707658     -10.16709962      -1.48814604      -0.09039528      -0.05698175       0.04219905
O       -2.77437926      -5.77237809      -6.06618641      -0.09728792      -0.09883150      -0.03359360
O       -6.24946208     -14.10554500      -5.40140963      -0.02366686       0.04752208       0.01177557
O       -4.04490544      -1.83393271      -0.82336926       0.01758430      -0.03918882       0.01191089
O       -0.61344960      -6.13580615      -8.33271148       0.00916548       0.03536269      -0.00777634
O       -2.81800624      -9.80367156      -3.75467111       0.00418205      -0.06988190      -0.08229221
O       -0.61344960      -1.83393271      -3.75467111       0.01730165      -0.03993567      -0.01167819
O       -2.81800624     -14.10554500      -8.33271148      -0.01722766       0.03908064      -0.01169234
O       -6.24946208      -9.80367156      -0.82336926      -0.03532023      -0.04279402      -0.01508627
O       -4.04490544      -6.13580615      -5.40140963       0.01732795       0.03901977       0.01142083
O       -6.28264714     -15.51619197      -8.97020717       0.04649912      -0.01799212      -0.05765763
O       -4.01172038      -0.42328574      -4.39216680      -0.04667782       0.01782369      -0.05740579
O       -0.58026454      -7.54645311      -4.76391394      -0.06232626      -0.00892851       0.09028598
O       -2.85119130      -8.39302460      -0.18587357       0.11148262       0.12988304       0.03076126
O       -0.58026454      -0.42328574      -0.18587357      -0.04659669       0.01839822       0.05685874
O       -2.85119130     -15.51619197      -4.76391394       0.04630438      -0.01823579       0.05762680
O       -6.28264714      -8.39302460      -4.39216680       0.04681934       0.01845368      -0.05687241
O       -4.01172038      -7.54645311      -8.97020717      -0.09893532      -0.07775244      -0.06915866
96
Lattice="-6.86531605 0.0 0.0 0.0 0.0 -9.15284347 0.0 -15.9386512 0.0" Properties=species:S:1:pos:R:3:forces:R:3 energy=-526.3329477196355 pbc="T T T"
Na      -5.12381508     -15.76852905      -6.72481541      -0.02727166       0.04690701       0.01282082
Na      -5.17415899      -0.17012215      -2.14839368       0.02747620      -0.04698176       0.01298781
Na      -1.74150097      -7.79920345      -7.00444979       0.03116672       0.05248623      -0.00614266
Na      -1.69115706      -8.13944775      -2.42802806      -0.03385355      -0.04952325       0.00253652
Na      -1.74150097      -0.17012215      -2.42802806       0.01952660      -0.06086661      -0.02761075
Na      -1.69115706     -15.76852905      -7.00444979      -0.02239065       0.05536543      -0.01508840
Na      -5.12381508      -8.13944775      -2.14839368      -0.02668896      -0.04696735       0.01323950
Na      -5.17415899      -7.79920345      -6.72481541       0.02710116       0.04707650       0.01289830
Na      -5.20405442     -11.95895680      -9.14509724       0.00219071       0.00682142       0.00608361
Na      -5.09391965      -3.97969440      -4.56867550      -0.00978394       0.01365386       0.00637147
Na      -1.66126163      -3.98963120      -4.58416797      -0.06508916       0.02506927       0.05921166
Na      -1.77139640     -11.94902000      -0.00774623       0.00201296      -0.00598733      -0.00657353
Na      -1.66126163      -3.97969440      -0.00774623      -0.00307170      -0.04316877       0.06472072
Na      -1.77139640     -11.95895680      -4.58416797       0.00290884      -0.01928760       0.01669300
Na      -5.20405442     -11.94902000      -4.56867550       0.00202139      -0.00659325       0.00586352
Na      -5.09391965      -3.98963120      -9.14509724      -0.00195502       0.00593100       0.00636178
H       -0.36140877     -12.92979455      -6.63675829      -0.00709273      -0.02484846      -0.01787493
H       -3.07124925      -3.00885665      -2.06033655       0.02668806       0.00815156      -0.02977497
H       -6.50390728      -4.96046895      -7.09250692      -0.00067805      -0.02296158       0.03155479
H       -3.79406680     -10.97818225      -2.51608518      -0.00367175       0.03343601       0.02185140
H       -6.50390728      -3.00885665      -2.51608518       0.00648600       0.02431648       0.01836602
H       -3.79406680     -12.92979455      -7.09250692      -0.00678814      -0.02465781       0.01776142
H       -0.36140877     -10.97818225      -2.06033655      -0.00657894       0.02465728      -0.01783057
H       -3.07124925      -4.96046895      -6.63675829       0.00665235      -0.01779856      -0.02553465
H       -6.55982775     -14.27593541      -4.42516862      -0.00121714      -0.02339622       0.03443905
H       -3.73814633      -1.66271579      -9.00159035       0.00388320       0.02841514       0.02376024
H       -0.30548830      -6.30660981      -0.15125312       0.00461917      -0.02821486      -0.02330058
H       -3.12716972      -9.63204139      -4.72767485      -0.00420564       0.02875736      -0.02338599
H       -0.30548830      -1.66271579      -4.72767485       0.00418758       0.02879608      -0.02394168
H       -3.12716972     -14.27593541      -0.15125312      -0.00467036      -0.02799944      -0.02367329
H       -6.55982775      -9.63204139      -9.00159035      -0.00429179       0.02820191       0.02324718
H       -3.73814633      -6.30660981      -4.42516862       0.00464444      -0.02869066       0.02338268
H       -6.57020117     -14.62870988      -0.27199468      -0.01656246      -0.04301165       0.01809566
H       -3.72777290      -1.30994132      -4.84841642       0.02061375       0.01180480       0.01398308
H       -0.29511488      -6.65938428      -4.30442705       0.02042906      -0.01268540      -0.01400216
H       -3.13754315      -9.27926692      -8.88084879      -0.13871937       0.08927728       0.07020756
H       -0.29511488      -1.30994132      -8.88084879       0.02073768       0.01194159      -0.01395420
H       -3.13754315     -14.62870988      -4.30442705       0.08985121       0.02237086       0.03328246
H       -6.57020117      -9.27926692      -4.84841642      -0.01855278       0.03289162       0.01233330
H       -3.72777290      -6.65938428      -0.27199468       0.01992015      -0.01246718       0.01405713
C       -0.02818068     -10.54815537      -6.84809872      -0.00336511      -0.09369470       0.00224180
C       -3.40447734      -5.39049583      -2.27167699      -0.00786635       0.08840183       0.02759903
C       -6.83713537      -2.57882977      -6.88116648       0.00707459      -0.09049731      -0.01415581
C       -3.46083871     -13.35982143      -2.30474475      -0.08291478       0.11283958      -0.02422356
C       -6.83713537      -5.39049583      -2.30474475       0.00079173       0.10295575      -0.03678350
C       -3.46083871     -10.54815537      -6.88116648      -0.00699886      -0.09022827      -0.01394636
C       -0.02818068     -13.35982143      -2.27167699      -0.07369464       0.05020428      -0.00310756
C       -3.40447734      -2.57882977      -6.84809872       0.00706482      -0.09071109       0.01339289
O       -0.08412690     -11.66725334      -7.51306662      -0.01308379      -0.06630826       0.02346805
O       -3.34853113      -4.27139786      -2.93664489       0.01157498      -0.00250645      -0.03848754
O       -6.78118915      -3.69792774      -6.21619858       0.01657024       0.00376214       0.05013984
O       -3.51678492     -12.24072346      -1.63977685       0.04606271       0.03489278       0.07989059
O       -6.78118915      -4.27139786      -1.63977685       0.02423549      -0.00195376       0.01670680
O       -3.51678492     -11.66725334      -6.21619858      -0.01168704       0.00247326       0.03940053
O       -0.08412690     -12.24072346      -2.93664489      -0.01177539      -0.00211182      -0.03938124
O       -3.34853113      -3.69792774      -7.51306662       0.03141893      -0.03900479       0.05892872
O       -6.82165841      -9.41524051      -7.47867875       0.01569885       0.10304194      -0.07922122
O       -3.47631567      -6.52341069      -2.90225701      -0.03079912      -0.08809314      -0.10807518
O       -0.04365764      -1.44591491      -6.25058646      -0.01550589       0.10215135       0.07955899
O       -3.38900038     -14.49273629      -1.67416472       0.01544800      -0.10248860       0.07902120
O       -0.04365764      -6.52341069      -1.67416472      -0.02369243      -0.10685680       0.08368787
O       -3.38900038      -9.41524051      -6.25058646       0.01675076       0.09375204       0.06447079
O       -6.82165841     -14.49273629      -2.90225701      -0.00586266      -0.08648370      -0.07405458
O       -3.47631567      -1.44591491      -7.47867875      -0.02326109       0.07831760      -0.00357967
O       -0.04460478     -10.58076458      -5.55069259       0.14863884      -0.02544148       0.11414075
O       -3.38805324      -5.35788662      -0.97427085      -0.01785571       0.05595652       0.11257115
O       -6.82071127      -2.61143898      -8.17857262      -0.01289306      -0.03752989      -0.09580616
O       -3.47726281     -13.32721222      -3.60215088       0.01775443       0.05640674      -0.11266884
O       -6.82071127      -5.35788662      -3.60215088      -0.01022031       0.07541420      -0.14692771
O       -3.47726281     -10.58076458      -8.17857262       0.00976501      -0.03487009      -0.14051967
O       -0.04460478     -13.32721222      -0.97427085       0.01937892       0.05275672       0.12192967
O       -3.38805324      -2.61143898      -5.55069259      -0.01784917      -0.05620882       0.11283897
O       -0.65870511     -13.74163277      -6.06505264       0.12918438       0.13175488      -0.04740445
O       -2.77395292      -2.19701843      -1.48863091      -0.06798635      -0.03751419       0.05302914
O       -6.20661094      -5.77230717      -7.66421256      -0.16970450      -0.01714424      -0.02732822
O       -4.09136313     -10.16634403      -3.08779083       0.10111459      -0.00487644      -0.06647576
O       -6.20661094      -2.19701843      -3.08779083      -0.06039347      -0.03686300      -0.06471948
O       -4.09136313     -13.74163277      -7.66421256       0.14601954       0.02400864      -0.18813697
O       -0.65870511     -10.16634403      -1.48863091       0.07250787      -0.00581507       0.08430389
O       -2.77395292      -5.77230717      -6.06505264      -0.08658153       0.01886471       0.05818044
O       -6.25037019     -14.10580306      -5.39865892      -0.08350872       0.05553635      -0.06599121
O       -4.04760388      -1.83284814      -0.82223718       0.07174580      -0.06566729      -0.05141143
O       -0.61494586      -6.13647746      -8.33060629       0.11147260      -0.07863488       0.07787958
O       -2.81771217      -9.80217374      -3.75418455      -0.08083391      -0.06094385       0.03742291
O       -0.61494586      -1.83284814      -3.75418455       0.08060203      -0.06140692       0.03710532
O       -2.81771217     -14.10580306      -8.33060629      -0.05481721       0.06680999       0.02657424
O       -6.25037019      -9.80217374      -0.82223718      -0.08535171      -0.05028447      -0.03805468
O       -4.04760388      -6.13647746      -5.39865892       0.06558139       0.06345528      -0.02495528
O       -6.28608576     -15.51527711      -8.96638705       0.07553053      -0.00521105      -0.05331406
O       -4.01188831      -0.42337409      -4.38996532      -0.07555067       0.00525253      -0.05332785
O       -0.57923029      -7.54595151      -4.76287815      -0.07519942      -0.00499671       0.05288607
O       -2.85342774      -8.39269969      -0.18645642       0.07524303       0.00499593       0.05312757
O       -0.57923029      -0.42337409      -0.18645642      -0.08425078      -0.00229877       0.04907626
O       -2.85342774     -15.51527711      -4.76287815       0.07533654      -0.00547517       0.05349562
O       -6.28608576      -8.39269969      -4.38996532       0.11184475      -0.06857090      -0.13312498
O       -4.01188831      -7.54595151      -8.96638705      -0.07554293      -0.00517894      -0.05273839
96
Lattice="-6.88195144 0.0 0.0 0.0 0.0 -9.15593344 0.0 -15.9495731 0.0" Properties=species:S:1:pos:R:3:forces:R:3 energy=-526.3296068681996 pbc="T T T"
Na      -5.13664575     -15.77837325      -6.72660207      -0.01573846       0.01293541      -0.00387719
Na      -5.18628141      -0.17119985      -2.14863535       0.01539151      -0.01310741      -0.00392477
Na      -1.74530569      -7.80358670      -7.00729809       0.01559330       0.01363193       0.00395599
Na      -1.69567003      -8.14598640      -2.42933137      -0.03428596      -0.02656863       0.02683460
Na      -1.74530569      -0.17119985      -2.42933137       0.01609978      -0.01305126       0.00399123
Na      -1.69567003     -15.77837325      -7.00729809       0.01097578       0.01989496      -0.00110618
Na      -5.13664575      -8.14598640      -2.14863535      -0.01598620      -0.01317871      -0.00468142
Na      -5.18628141      -7.80358670      -6.72660207       0.16439639       0.02144129       0.08728198
Na      -5.21670879     -11.96703169      -9.14799103       0.00638484       0.00735434      -0.00961398
Na      -5.10621837      -3.98254141      -4.57002431      -0.00245712      -0.00359016      -0.00137680
Na      -1.66524265      -3.99224514      -4.58590913      -0.00291639       0.00386839       0.00120461
Na      -1.77573307     -11.95732796      -0.00794241       0.00277940      -0.00321695       0.00067965
Na      -1.66524265      -3.98254141      -0.00794241      -0.00287934      -0.00301333       0.00080633
Na      -1.77573307     -11.96703169      -4.58590913       0.00293712       0.00380118       0.00090077
Na      -5.21670879     -11.95732796      -4.57002431       0.00238027      -0.00347323      -0.00129863
Na      -5.10621837      -3.99224514      -9.14799103      -0.00315746       0.00307297      -0.00139720
H       -0.36306726     -12.93746512      -6.63867123       0.00317926      -0.04162399      -0.00379741
H       -3.07790846      -3.01210798      -2.06070451       0.01151662       0.06092951      -0.01036036
H       -6.51888418      -4.96267857      -7.09522893       0.02548841      -0.01412088       0.07344366
H       -3.80404298     -10.98689453      -2.51726221       0.00392291       0.04166166       0.00445916
H       -6.51888418      -3.01210798      -2.51726221       0.05986080       0.03968876       0.05290141
H       -3.80404298     -12.93746512      -7.09522893       0.00376869      -0.04199396       0.00435967
H       -0.36306726     -10.98689453      -2.06070451       0.00319708       0.04124208      -0.00419453
H       -3.07790846      -4.96267857      -6.63867123      -0.00395223      -0.04170635      -0.00440589
H       -6.57543242     -14.28378485      -4.42416352      -0.01089490      -0.02937833       0.00017789
H       -3.74749474      -1.66578825      -9.00213024       0.01109317       0.02915791       0.00075805
H       -0.30651902      -6.30899830      -0.15380320      -0.00952816      -0.01325759      -0.01681004
H       -3.13445670      -9.64057480      -4.73176992      -0.01074998       0.02933231      -0.00111016
H       -0.30651902      -1.66578825      -4.73176992       0.01051384       0.02925198      -0.00027891
H       -3.13445670     -14.28378485      -0.15380320      -0.01108606      -0.02913974      -0.00056406
H       -6.57543242      -9.64057480      -9.00213024      -0.01034612       0.02955241       0.00092918
H       -3.74749474      -6.30899830      -4.42416352       0.00545902      -0.03171341       0.01458950
H       -6.58447661     -14.63818197      -0.27417470      -0.03574610      -0.04048890       0.01512270
H       -3.73845055      -1.31139113      -4.85214142       0.05075755       0.04423009       0.02192239
H       -0.29747483      -6.66339542      -4.30379202       0.03571820      -0.04040416      -0.01586467
H       -3.14350089      -9.28617768      -8.88175874      -0.03501571       0.04073119      -0.01535526
H       -0.29747483      -1.31139113      -8.88175874       0.01951124       0.03645527      -0.00795731
H       -3.14350089     -14.63818197      -4.30379202      -0.10093981       0.00435122       0.05784152
H       -6.58447661      -9.28617768      -4.85214142       0.00009540      -0.05685065      -0.06886786
H       -3.73845055      -6.66339542      -0.27417470       0.06068320      -0.02782110      -0.00795335
C       -0.02799289     -10.55635782      -6.85117486      -0.00730799      -0.04670418       0.05611953
C       -3.41298283      -5.39321528      -2.27320814       0.02616117       0.03798645       0.04904599
C       -6.85395855      -2.58157127      -6.88272530       0.00738115      -0.04705320      -0.05590552
C       -3.46896861     -13.36800183      -2.30475858      -0.07183820      -0.03249014       0.02969043
C       -6.85395855      -5.39321528      -2.30475858       0.02113780       0.01981505      -0.05474116
C       -3.46896861     -10.55635782      -6.88272530       0.01732456      -0.05762073       0.01967737
C       -0.02799289     -13.36800183      -2.27320814       0.07047084       0.04477980      -0.04360152
C       -3.41298283      -2.58157127      -6.85117486       0.01959968      -0.05559194       0.05419344
O       -0.08506395     -11.67505449      -7.51524858      -0.01154234      -0.00538243      -0.04940233
O       -3.35591177      -4.27451861      -2.93728186       0.01140711       0.00546003      -0.05036070
O       -6.79688749      -3.70026794      -6.21865158       0.01172110      -0.00519309       0.04964586
O       -3.52603967     -12.24930516      -1.64068486       0.00292602      -0.01009464       0.04955159
O       -6.79688749      -4.27451861      -1.64068486       0.03475891      -0.01469991       0.12366342
O       -3.52603967     -11.67505449      -6.21865158       0.00862113      -0.00992870       0.07353568
O       -0.08506395     -12.24930516      -2.93728186       0.00380838      -0.01039883      -0.03396134
O       -3.35591177      -3.70026794      -7.51524858       0.01179091      -0.00520560      -0.04996146
O       -6.83777867      -9.42279486      -7.48034983       0.01876385       0.09885699      -0.10843218
O       -3.48514849      -6.52677824      -2.90238311      -0.01900244      -0.09853417      -0.10816890
O       -0.04417277      -1.44800831      -6.25355033      -0.15779958       0.08668917       0.20357535
O       -3.39680295     -14.50156479      -1.67558361       0.01964298      -0.09898919       0.10855809
O       -0.04417277      -6.52677824      -1.67558361      -0.01910193      -0.09898385       0.10898515
O       -3.39680295      -9.42279486      -6.25355033       0.01921491       0.09835818       0.10892289
O       -6.83777867     -14.50156479      -2.90238311       0.00842070      -0.12200602      -0.11276575
O       -3.48514849      -1.44800831      -7.48034983      -0.02377878       0.09258622      -0.09772129
O       -0.04382344     -10.58728420      -5.55363956       0.01752137      -0.07704757       0.11993695
O       -3.39715228      -5.36228890      -0.97567284      -0.01825195       0.07743189       0.11966421
O       -6.83812800      -2.61249765      -8.18026060      -0.01771786      -0.07732802      -0.11914041
O       -3.48479916     -13.33707545      -3.60229388       0.04428444       0.07784102      -0.12473377
O       -6.83812800      -5.36228890      -3.60229388      -0.00737462       0.07196089      -0.12804547
O       -3.48479916     -10.58728420      -8.18026060       0.01236511      -0.10723480      -0.11682467
O       -0.04382344     -13.33707545      -0.97567284       0.01785542       0.07778731       0.11989619
O       -3.39715228      -2.61249765      -5.55363956      -0.03521590      -0.06125296       0.09391073
O       -0.65928352     -13.75020273      -6.06695561       0.11258252       0.01022181       0.07671136
O       -2.78169220      -2.19937037      -1.48898889      -0.11248247      -0.01110373       0.07666384
O       -6.22266792      -5.77541618      -7.66694455      -0.12602175       0.02169087      -0.06450773
O       -4.10025924     -10.17415692      -3.08897783       0.11281260      -0.01093337      -0.07691488
O       -6.22266792      -2.19937037      -3.08897783      -0.11951395       0.02617164      -0.21913791
O       -4.10025924     -13.75020273      -7.66694455       0.11289604       0.01027229      -0.07672308
O       -0.65928352     -10.17415692      -1.48898889       0.11281987      -0.01047932       0.07695176
O       -2.78169220      -5.77541618      -6.06695561      -0.12218625       0.02962676       0.09890384
O       -6.26653417     -14.11492481      -5.39906992      -0.07977516      -0.04330745      -0.11644383
O       -4.05639299      -1.83464829      -0.82110320       0.09462572      -0.08304848      -0.04607569
O       -0.61541727      -6.14013826      -8.33483024       0.10954515       0.07257549       0.05346173
O       -2.82555845      -9.80943484      -3.75686352      -0.10367217      -0.06199562       0.06271465
O       -0.61541727      -1.83464829      -3.75686352       0.10896826      -0.07292233       0.05377825
O       -2.82555845     -14.11492481      -8.33483024      -0.04204743       0.18928263       0.08536172
O       -6.26653417      -9.80943484      -0.82110320      -0.08933956       0.00310728      -0.10711970
O       -4.05639299      -6.14013826      -5.39906992       0.04538091       0.09897414       0.00497751
O       -6.30189942     -15.52640748      -8.97219656       0.08835701       0.00069974      -0.03652280
O       -4.02102774      -0.42316562      -4.39422984      -0.08792645      -0.00115583      -0.03710037
O       -0.58005202      -7.55162093      -4.76170360      -0.08811215       0.00125101       0.03717657
O       -2.86092370      -8.39795217      -0.18373688       0.10260861       0.01641659       0.05347700
O       -0.58005202      -0.42316562      -0.18373688      -0.08807886      -0.00082403       0.03705123
O       -2.86092370     -15.52640748      -4.76170360       0.08840061       0.00112244       0.03623269
O       -6.30189942      -8.39795217      -4.39422984       0.09246898       0.01208993      -0.03386980
O       -4.02102774      -7.55162093      -8.97219656      -0.08871246       0.00115714      -0.03682029
96
Lattice="-6.84101027 0.0 0.0 0.0 0.0 -9.14832874 0.0 -15.92269335 0.0" Properties=species:S:1:pos:R:3:forces:R:3 energy=-526.3284856863734 pbc="T T T"
Na      -5.10506567     -15.75414734      -6.72220541      -0.01321163       0.02296249       0.00154604
Na      -5.15644973      -0.16854601      -2.14804104       0.01270174      -0.02334401       0.00199543
Na      -1.73594460      -7.79280067      -7.00028770      -0.00881871      -0.00047775       0.00944193
Na      -1.68456054      -8.12989268      -2.42612333      -0.01252758      -0.02319206      -0.00198783
Na      -1.73594460      -0.16854601      -2.42612333       0.02412454      -0.02971759       0.00563241
Na      -1.68456054     -15.75414734      -7.00028770      -0.01246293       0.02289442      -0.00179205
Na      -5.10506567      -8.12989268      -2.14804104      -0.01245365      -0.02300913       0.00187125
Na      -5.15644973      -7.79280067      -6.72220541       0.01301789       0.02264988       0.00238097
Na      -5.18556507     -11.94715922      -9.14086919      -0.00846176      -0.00600572      -0.00614843
Na      -5.07595033      -3.97553413      -4.56670482      -0.00017498      -0.00211800      -0.00049405
Na      -1.65544520      -3.98581255      -4.58162392      -0.02510580      -0.00378231       0.01013790
Na      -1.76505994     -11.93688080      -0.00745955       0.00005775      -0.00281309       0.00041549
Na      -1.65544520      -3.97553413      -0.00745955      -0.12831780       0.01444729       0.00879495
Na      -1.76505994     -11.94715922      -4.58162392       0.00009378       0.00193948      -0.00000602
Na      -5.18556507     -11.93688080      -4.56670482       0.00878192      -0.00741851      -0.00030050
Na      -5.07595033      -3.98581255      -9.14086919       0.00928621       0.02763173      -0.00878835
H       -0.35898071     -12.91858937      -6.63396355      -0.02943259       0.04953083       0.01869371
H       -3.06152442      -3.00410398      -2.05979918       0.02584668       0.01296940      -0.03089159
H       -6.48202956      -4.95724269      -7.08852956       0.02529888      -0.01262053       0.03159463
H       -3.77948585     -10.96545066      -2.51436519      -0.02568532       0.01280962       0.03075662
H       -6.48202956      -3.00410398      -2.51436519       0.02593612       0.01295725       0.03134064
H       -3.77948585     -12.91858937      -7.08852956      -0.01243762      -0.01867123       0.01565280
H       -0.35898071     -10.96545066      -2.05979918      -0.03265105       0.04314592      -0.04880268
H       -3.06152442      -4.95724269      -6.63396355       0.02554309      -0.01252115      -0.03085889
H       -6.53702964     -14.26447031      -4.42663934       0.01695048      -0.02298890       0.01818833
H       -3.72448577      -1.65822304      -9.00080371      -0.00920712       0.02685449       0.04134272
H       -0.30398063      -6.30312363      -0.14752503      -0.09091956       0.06930854      -0.01670413
H       -3.11652450      -9.61956972      -4.72168940       0.00910705       0.02708505      -0.04135795
H       -0.30398063      -1.65822304      -4.72168940      -0.03037013       0.02497573      -0.04646794
H       -3.11652450     -14.26447031      -0.14752503      -0.08347488       0.01634696       0.08762228
H       -6.53702964      -9.61956972      -9.00080371       0.02309908       0.02632943       0.02174515
H       -3.72448577      -6.30312363      -4.42663934      -0.00850436      -0.02643767       0.04173715
H       -6.54935365     -14.61487131      -0.26880754       0.02240807       0.02408108      -0.00210756
H       -3.71216176      -1.30782204      -4.84297191       0.01217914      -0.08611182       0.15315483
H       -0.29165662      -6.65352463      -4.30535683       0.02049413       0.03597250      -0.03496147
H       -3.12884851      -9.26916872      -8.87952120      -0.00289491      -0.03418321      -0.00554676
H       -0.29165662      -1.30782204      -8.87952120       0.00787620      -0.03755189       0.00577680
H       -3.12884851     -14.61487131      -4.30535683       0.00604238       0.02979121      -0.03152173
H       -6.54935365      -9.26916872      -4.84297191       0.00303761      -0.01810469       0.01966683
H       -3.71216176      -6.65352463      -0.26880754      -0.00327204       0.01754125       0.01971898
C       -0.02845662     -10.53616911      -6.84360355      -0.00571237      -0.14670137      -0.03741299
C       -3.39204852      -5.38652424      -2.26943918      -0.01091907       0.15953735      -0.04205237
C       -6.81255365      -2.57482244      -6.87888956       0.01382280      -0.13059514       0.04338297
C       -3.44896175     -13.34787091      -2.30472519      -0.07573353       0.19882399       0.02211603
C       -6.81255365      -5.38652424      -2.30472519       0.00658696       0.14650876       0.03740937
C       -3.44896175     -10.53616911      -6.87888956      -0.04847907      -0.12096586      -0.06476006
C       -0.02845662     -13.34787091      -2.26943918       0.01210377       0.14505890      -0.04107936
C       -3.39204852      -2.57482244      -6.84360355       0.00604020      -0.14595210      -0.03769857
O       -0.08275324     -11.65585546      -7.50987889      -0.01041880       0.01537822       0.02030865
O       -3.33775190      -4.26683789      -2.93571452       0.02051071      -0.05219101       0.02856656
O       -6.75825703      -3.69450878      -6.21261422      -0.05089036       0.16759229       0.02748708
O       -3.50325837     -12.22818457      -1.63844985       0.00241905      -0.02815721      -0.01144087
O       -6.75825703      -4.26683789      -1.63844985       0.02243927      -0.15466021       0.08428276
O       -3.50325837     -11.65585546      -6.21261422      -0.00537166       0.04827027      -0.00351509
O       -0.08275324     -12.22818457      -2.93571452      -0.00534807      -0.04827370       0.00301799
O       -3.33775190      -3.69450878      -7.50987889       0.08263207       0.01928634       0.05713750
O       -6.79810776      -9.40420128      -7.47623783      -0.01515509       0.08809634      -0.01905299
O       -3.46340764      -6.51849207      -2.90207346      -0.00712001      -0.08802914      -0.02892332
O       -0.04290251      -1.44285460      -6.24625528      -0.00700888       0.08752911       0.02906787
O       -3.37760263     -14.47983875      -1.67209091       0.00739119      -0.08783970       0.02912037
O       -0.04290251      -6.51849207      -1.67209091      -0.00616728      -0.07349927       0.03969713
O       -3.37760263      -9.40420128      -6.24625528       0.00757728       0.08770837       0.02908249
O       -6.79810776     -14.47983875      -2.90207346       0.02936155      -0.08709358      -0.05533085
O       -3.46340764      -1.44285460      -7.47623783      -0.01703217       0.10364430      -0.03336081
O       -0.04575192     -10.57124028      -5.54638581       0.01404010      -0.01696836       0.07360251
O       -3.37475321      -5.35145307      -0.97222144      -0.01452652       0.01713879       0.07378442
O       -6.79525835      -2.60989360      -8.17610730      -0.03894632       0.07575874      -0.14082347
O       -3.46625706     -13.31279975      -3.60194293       0.03791654       0.02915546      -0.10113117
O       -6.79525835      -5.35145307      -3.60194293      -0.01430997       0.01696857      -0.07299211
O       -3.46625706     -10.57124028      -8.17610730       0.01573381      -0.00188661      -0.06549225
O       -0.04575192     -13.31279975      -0.97222144      -0.13737264       0.07819856       0.06508610
O       -3.37475321      -2.60989360      -5.54638581      -0.01387775      -0.01741247       0.07357026
O       -0.65786630     -13.72911258      -6.06227223      -0.09627121      -0.05525433       0.08639727
O       -2.76263884      -2.19358077      -1.48810786      -0.05404526      -0.00245436       0.03655274
O       -6.18314397      -5.76776590      -7.66022088      -0.07132254       0.01217597      -0.01414847
O       -4.07837143     -10.15492745      -3.08605651       0.06535348      -0.03135431      -0.02816330
O       -6.18314397      -2.19358077      -3.08605651      -0.03387727      -0.02031958      -0.06895784
O       -4.07837143     -13.72911258      -7.66022088       0.05912789      -0.01684140      -0.04229558
O       -0.65786630     -10.15492745      -1.48810786       0.03486519      -0.00439485       0.04543169
O       -2.76263884      -5.76776590      -6.06227223      -0.05274935       0.02074897       0.03569843
O       -6.22674672     -14.09247624      -5.39805965      -0.04075274       0.03868755      -0.02928236
O       -4.03476868      -1.83021711      -0.82389528       0.06782667      -0.04272784      -0.02122127
O       -0.61426355      -6.13112957      -8.32443346       0.03266476       0.04361331       0.03265437
O       -2.80624159      -9.79156378      -3.75026909      -0.04101960      -0.03887832       0.02909833
O       -0.61426355      -1.83021711      -3.75026909       0.04050850      -0.03891749       0.02949636
O       -2.80624159     -14.09247624      -8.32443346      -0.04129956       0.03879581       0.02924819
O       -6.22674672      -9.79156378      -0.82389528      -0.03071783      -0.06940781      -0.00582651
O       -4.03476868      -6.13112957      -5.39805965       0.06457729      -0.02733608       0.00839369
O       -6.26297699     -15.49901373      -8.95789649       0.04452838      -0.01421618      -0.05206663
O       -3.99853842      -0.42367962      -4.38373212      -0.06698241       0.08292940      -0.01764344
O       -0.57803328      -7.53766705      -4.76459662      -0.02185240       0.01014969       0.05493420
O       -2.84247185      -8.38502630      -0.19043225       0.04475459       0.01435614       0.05142796
O       -0.57803328      -0.42367962      -0.19043225      -0.07503996      -0.05022682       0.08868820
O       -2.84247185     -15.49901373      -4.76459662       0.04477063      -0.01449138       0.05193628
O       -6.26297699      -8.38502630      -4.38373212       0.04378776       0.01880640      -0.04231514
O       -3.99853842      -7.53766705      -8.95789649      -0.04531481      -0.01382020      -0.05195402
96
Lattice="-6.82455544 0.0 0.0 0.0 0.0 -9.1452723 0.0 -15.91189 0.0" Properties=species:S:1:pos:R:3:forces:R:3 energy=-526.3181726599466 pbc="T T T"
Na      -5.09237537     -15.74440924      -6.72043801      -0.01219807       0.02867216       0.00115088
Na      -5.14445779      -0.16748076      -2.14780186       0.01131047      -0.02853399       0.00101099
Na      -1.73218007      -7.78846424      -6.99747044       0.01411556       0.02947067      -0.01227334
Na      -1.68009765      -8.12342576      -2.42483429      -0.00369511      -0.06217329       0.14965389
Na      -1.73218007      -0.16748076      -2.42483429       0.01945162      -0.01428290       0.00618883
Na      -1.68009765     -15.74440924      -6.99747044      -0.01191339       0.02924306      -0.00092194
Na      -5.09237537      -8.12342576      -2.14780186      -0.01178007      -0.02843443       0.00140634
Na      -5.14445779      -7.78846424      -6.72043801       0.00133652       0.02886392       0.00098502
Na      -5.17304817     -11.93917208      -9.13800666       0.02606555       0.01716837      -0.02007279
Na      -5.06378499      -3.97271792      -4.56537051       0.00865081      -0.02609590      -0.01140392
Na      -1.65150727      -3.98322708      -4.57990179      -0.00209214       0.00013570       0.00209145
Na      -1.76077045     -11.92866292      -0.00726564       0.00145404       0.00045136       0.00255180
Na      -1.65150727      -3.97271792      -0.00726564      -0.00218464       0.00039882       0.00234353
Na      -1.76077045     -11.93917208      -4.57990179      -0.04934370      -0.00994162       0.13778830
Na      -5.17304817     -11.92866292      -4.56537051       0.00168834       0.00011303      -0.00174661
Na      -5.06378499      -3.98322708      -9.13800666      -0.00651437       0.00066752      -0.02220061
H       -0.35734225     -12.91100111      -6.63207118      -0.03781501      -0.00365958      -0.04083222
H       -3.05493547      -3.00088889      -2.05943503       0.03204406       0.01149604      -0.04012635
H       -6.46721319      -4.95505611      -7.08583727      -0.07298452      -0.00262275      -0.01169979
H       -3.76961997     -10.95683389      -2.51320112       0.01130536      -0.03047264      -0.01160022
H       -6.46721319      -3.00088889      -2.51320112       0.01917374      -0.06660653       0.00802476
H       -3.76961997     -12.91100111      -7.08583727      -0.04109517       0.00413687       0.04997617
H       -0.35734225     -10.95683389      -2.05943503       0.07142771      -0.11385696      -0.10207692
H       -3.05493547      -4.95505611      -6.63207118       0.03056541      -0.01061563      -0.04227110
H       -6.52159356     -14.25670465      -4.42763255       0.00880838      -0.02957152       0.07472245
H       -3.71523960      -1.65518535      -9.00026870      -0.03148854       0.02013294       0.07597385
H       -0.30296188      -6.30075965      -0.14500360      -0.09423482       0.04238213      -0.01130367
H       -3.10931584      -9.61113035      -4.71763975       0.00353781       0.01400770      -0.04872728
H       -0.30296188      -1.65518535      -4.71763975      -0.02203637       0.03667898      -0.03799099
H       -3.10931584     -14.25670465      -0.14500360       0.01666648      -0.02763033      -0.05944260
H       -6.52159356      -9.61113035      -9.00026870       0.09056565       0.00292046       0.07851615
H       -3.71523960      -6.30075965      -4.42763255      -0.01651826      -0.02693380       0.05985278
H       -6.53522875     -14.60550155      -0.26665181       0.01017637       0.02247056       0.01524838
H       -3.70160441      -1.30638845      -4.83928796      -0.03299292      -0.05939646       0.03308723
H       -0.28932669      -6.64955655      -4.30598434      -0.01923372       0.03924562      -0.02283482
H       -3.12295103      -9.26233345      -8.87862049       0.02751137      -0.04615382      -0.02267620
H       -0.28932669      -1.30638845      -8.87862049      -0.17112857      -0.03030372      -0.03339248
H       -3.12295103     -14.60550155      -4.30598434       0.05183463      -0.10674349      -0.03876674
H       -6.53522875      -9.26233345      -4.83928796       0.01968737      -0.03964379       0.02302632
H       -3.70160441      -6.64955655      -0.26665181      -0.02397966       0.04580878       0.01402558
C       -0.02864170     -10.52805651      -6.84056107      -0.00655572      -0.18540198      -0.07400582
C       -3.38363602      -5.38383349      -2.26792492       0.10997909       0.22940837      -0.08509522
C       -6.79591374      -2.57211151      -6.87734738       0.03909644      -0.27118492      -0.00752578
C       -3.44091942     -13.33977849      -2.30471123      -0.02546875       0.24730510       0.02716571
C       -6.79591374      -5.38383349      -2.30471123       0.00607205       0.18537453       0.07456849
C       -3.44091942     -10.52805651      -6.87734738      -0.00755381      -0.19277120       0.09301914
C       -0.02864170     -13.33977849      -2.26792492      -0.02309644       0.20091280      -0.08855488
C       -3.38363602      -2.57211151      -6.84056107       0.00843482      -0.19138890      -0.10118493
O       -0.08182840     -11.64813868      -7.50772048      -0.00049703       0.07784007       0.02690681
O       -3.33044932      -4.26375132      -2.93508433       0.00014281      -0.07794629       0.02773985
O       -6.74272704      -3.69219368      -6.21018797      -0.00401151       0.08951610       0.00453867
O       -3.49410612     -12.21969632      -1.63755182       0.00025373      -0.07796386      -0.02754786
O       -6.74272704      -4.26375132      -1.63755182       0.06319916      -0.11692286      -0.17602785
O       -3.49410612     -11.64813868      -6.21018797       0.00870868       0.10133702      -0.02929773
O       -0.08182840     -12.21969632      -2.93508433       0.00981752      -0.07428215       0.04158547
O       -3.33044932      -3.69219368      -7.50772048       0.00039823       0.07746428       0.02709116
O       -6.78216130      -9.39672988      -7.47458460       0.00119609       0.07873885       0.00188632
O       -3.45467186      -6.51516012      -2.90194845       0.00820923      -0.07733931       0.00431645
O       -0.04239414      -1.44078488      -6.24332385      -0.07387742      -0.05362876      -0.02560047
O       -3.36988358     -14.47110512      -1.67068770       0.00171848      -0.07848374      -0.00167722
O       -0.04239414      -6.51516012      -1.67068770      -0.00117856      -0.07897494      -0.00167556
O       -3.36988358      -9.39672988      -6.24332385      -0.01407771       0.06897484       0.07649239
O       -6.78216130     -14.47110512      -2.90194845       0.00599085      -0.12941461       0.09216860
O       -3.45467186      -1.44078488      -7.47458460      -0.00291846       0.10669739      -0.01164415
O       -0.04652238     -10.56479086      -5.54347128       0.01045640       0.00189046       0.05475907
O       -3.36575534      -5.34709914      -0.97083513       0.00069315       0.07587359       0.03872994
O       -6.77803306      -2.60884586      -8.17443717      -0.01722177       0.02455111      -0.05494612
O       -3.45880010     -13.30304414      -3.60180102       0.01051003      -0.00133509      -0.05470566
O       -6.77803306      -5.34709914      -3.60180102      -0.01751816      -0.00187991      -0.04773951
O       -3.45880010     -10.56479086      -8.17443717       0.01233193       0.03461682      -0.04873827
O       -0.04652238     -13.30304414      -0.97083513       0.01104648      -0.00139845       0.05474946
O       -3.36575534      -2.60884586      -5.54347128      -0.00263290       0.00292120       0.06079956
O       -0.65729143     -13.72063499      -6.06038987       0.03183244       0.03375449       0.01518253
O       -2.75498629      -2.19125501      -1.48775372      -0.03184962      -0.03352889       0.01587185
O       -6.16726401      -5.76468999      -7.65751858      -0.05045084       0.03253558      -0.00615301
O       -4.06956915     -10.14720001      -3.08488243       0.03215539      -0.03365967      -0.01562494
O       -6.16726401      -2.19125501      -3.08488243      -0.03213034      -0.03346845      -0.01580925
O       -4.06956915     -13.72063499      -7.65751858       0.03567706       0.01499431       0.00365271
O       -0.65729143     -10.14720001      -1.48775372       0.04157478      -0.02170021       0.04069429
O       -2.75498629      -5.76468999      -6.06038987      -0.06309656      -0.00131636      -0.07639969
O       -6.21076093     -14.08345313      -5.39765256      -0.07945075       0.02044338       0.01571743
O       -4.02607223      -1.82843687      -0.82501641       0.01233994      -0.02704728      -0.02678430
O       -0.61379451      -6.12750813      -8.32025589       0.01253803       0.02734616       0.02666933
O       -2.79848321      -9.78438187      -3.74761974      -0.01248105      -0.02784619       0.02693397
O       -0.61379451      -1.82843687      -3.74761974       0.02141584      -0.03279987       0.03499825
O       -2.79848321     -14.08345313      -8.32025589      -0.01862838      -0.00442162       0.05018125
O       -6.21076093      -9.78438187      -0.82501641      -0.01227463      -0.02742931      -0.02742784
O       -4.02607223      -6.12750813      -5.39765256       0.05959837       0.02623902       0.08171274
O       -6.24733652     -15.48800457      -8.95215104       0.02402948      -0.01555006      -0.05533797
O       -3.98949664      -0.42388543      -4.37951489      -0.02332159       0.01529122      -0.05547200
O       -0.57721892      -7.53205957      -4.76575741      -0.02306067       0.00455524       0.05692939
O       -2.83505880      -8.37983043      -0.19312126       0.02484292       0.00805799       0.04923206
O       -0.57721892      -0.42388543      -0.19312126      -0.02412545       0.01570814       0.05566412
O       -2.83505880     -15.48800457      -4.76575741       0.01837614      -0.02843935       0.06089708
O       -6.24733652      -8.37983043      -4.37951489       0.02334335       0.01541310      -0.05528984
O       -3.98949664      -7.53205957      -8.95215104      -0.02371851      -0.01546868      -0.05607484
96
Lattice="-6.80966495 0.0 0.0 0.0 0.0 -9.14852444 0.0 -15.90862005 0.0" Properties=species:S:1:pos:R:3:forces:R:3 energy=-526.3100861123298 pbc="T T T"
Na      -5.08094985     -15.74186462      -6.72346341      -0.01095853       0.04006291       0.02247265
Na      -5.13354757      -0.16675543      -2.14920119       0.01365476      -0.03181293       0.00406023
Na      -1.72871510      -7.78755460      -6.99932325       0.01391690       0.03189480      -0.00364927
Na      -1.67611738      -8.12106545      -2.42506103      -0.02640699      -0.03067207      -0.00595995
Na      -1.72871510      -0.16675543      -2.42506103       0.01368631      -0.03176649      -0.00399800
Na      -1.67611738     -15.74186462      -6.99932325       0.00355668       0.04742454       0.00226476
Na      -5.08094985      -8.12106545      -2.14920119      -0.00526982      -0.05382923      -0.01934842
Na      -5.13354757      -7.78755460      -6.72346341       0.03350819       0.04954537      -0.00113308
Na      -5.16166325     -11.93688606      -9.14156772       0.00265158      -0.00002900      -0.00482020
Na      -5.05283418      -3.97173399      -4.56730550       0.00656635      -0.03019162      -0.00142225
Na      -1.64800170      -3.98257603      -4.58121894       0.02300263       0.14998642      -0.05214901
Na      -1.75683077     -11.92604402      -0.00695672       0.00489926       0.03441764      -0.01092686
Na      -1.64800170      -3.97173399      -0.00695672      -0.00090411       0.01013858       0.00351874
Na      -1.75683077     -11.93688606      -4.58121894      -0.09796363      -0.04566641       0.01632111
Na      -5.16166325     -11.92604402      -4.56730550      -0.02409486       0.00213566      -0.01783835
Na      -5.05283418      -3.98257603      -9.14156772      -0.00017437       0.01371019      -0.00746563
H       -0.35631497     -12.91004721      -6.63575851      -0.05182251      -0.01911769      -0.02709501
H       -3.04851751      -2.99857284      -2.06149629       0.05181011       0.01906606      -0.02672888
H       -6.45334998      -4.95573719      -7.08702815       0.12543468      -0.08068369      -0.01703672
H       -3.76114744     -10.95288286      -2.51276593      -0.06692308       0.00716259      -0.00602687
H       -6.45334998      -2.99857284      -2.51276593       0.04842610       0.02055365       0.04396652
H       -3.76114744     -12.91004721      -7.08702815      -0.05160881      -0.01843622       0.02667149
H       -0.35631497     -10.95288286      -2.06149629      -0.06413291      -0.00738847      -0.03952187
H       -3.04851751      -4.95573719      -6.63575851       0.05180822      -0.01900782      -0.02728996
H       -6.50740095     -14.25699014      -4.43133510       0.02099509      -0.04726783       0.04671942
H       -3.70709648      -1.65162991      -9.00559732      -0.03606065       0.01918151       0.04487808
H       -0.30226400      -6.30268011      -0.14292712      -0.03633719      -0.01869915      -0.04468997
H       -3.10256847      -9.60593994      -4.71718934       0.03631559       0.01868361      -0.04473866
H       -0.30226400      -1.65162991      -4.71718934      -0.04681405       0.01826075      -0.03109422
H       -3.10256847     -14.25699014      -0.14292712       0.04286146      -0.02438534      -0.03784010
H       -6.50740095      -9.60593994      -9.00559732       0.03597457       0.01837994       0.04472702
H       -3.70709648      -6.30268011      -4.43133510      -0.03590323      -0.01847629       0.04422148
H       -6.52279236     -14.60240398      -0.26341840       0.03623608       0.04294489       0.03442536
H       -3.69170507      -1.30621607      -4.83768062      -0.08011080      -0.01179427       0.07888466
H       -0.28687259      -6.64809396      -4.31084382      -0.00672158       0.16138391      -0.00661781
H       -3.11795988      -9.26052609      -8.88510604       0.03994359      -0.04655556      -0.01926381
H       -0.28687259      -1.30621607      -8.88510604       0.03772260      -0.03998552      -0.00029852
H       -3.11795988     -14.60240398      -4.31084382       0.04012405       0.04651057      -0.01918777
H       -6.52279236      -9.26052609      -4.83768062       0.02738175      -0.04995825       0.03325780
H       -3.69170507      -6.64809396      -0.26341840      -0.04270856       0.06025755      -0.01189768
C       -0.02905827     -10.52854477      -6.84354218       0.01306604       0.11856517      -0.00175817
C       -3.37577420      -5.38007528      -2.26927996      -0.01210858      -0.12391286       0.02282057
C       -6.78060668      -2.57423474      -6.87924448      -0.01195934       0.12325425      -0.02311537
C       -3.43389075     -13.33438531      -2.30498226       0.01137457      -0.05812757       0.02342460
C       -6.78060668      -5.38007528      -2.30498226      -0.02179287      -0.11262413      -0.01407012
C       -3.43389075     -10.52854477      -6.87924448       0.01261657       0.12314792      -0.02256638
C       -0.02905827     -13.33438531      -2.26927996       0.01268224      -0.12326631       0.02255532
C       -3.37577420      -2.57423474      -6.84354218      -0.01986542       0.11149661       0.01881550
O       -0.08065340     -11.64433863      -7.51028847       0.01117139       0.07629671      -0.02166332
O       -3.32417908      -4.26428142      -2.93602625       0.00444623       0.01570000      -0.01527504
O       -6.72901155      -3.69002860      -6.21249819      -0.02956845      -0.05439770       0.07651778
O       -3.48548587     -12.21859145      -1.63823597      -0.03816927      -0.00336180       0.00687574
O       -6.72901155      -4.26428142      -1.63823597      -0.00605178       0.00863094       0.00051161
O       -3.48548587     -11.64433863      -6.21249819       0.02013580      -0.01637166      -0.06053498
O       -0.08065340     -12.21859145      -2.93602625      -0.00469361       0.01631128      -0.01560324
O       -3.32417908      -3.69002860      -7.51028847       0.00946197      -0.01613097      -0.00656611
O       -6.76789351      -9.39161201      -7.47837458      -0.00823421      -0.17119628       0.05038061
O       -3.44660391      -6.51700804      -2.90411236       0.00233191       0.14820971       0.12785923
O       -0.04177144      -1.43730198      -6.24441208       0.01402341      -0.12650565      -0.11590463
O       -3.36306104     -14.47131807      -1.67014986      -0.00801755       0.13461594      -0.09305496
O       -0.04177144      -6.51700804      -1.67014986      -0.01648176       0.15090563      -0.11172660
O       -3.36306104      -9.39161201      -6.24441208       0.00489566      -0.09802184      -0.10300586
O       -6.76789351     -14.47131807      -2.90411236      -0.01478048       0.20400294       0.13554881
O       -3.44660391      -1.43730198      -7.47837458       0.01430764      -0.12591804       0.11657680
O       -0.04740317     -10.56358096      -5.54279949       0.00966022       0.00548508      -0.13131061
O       -3.35742931      -5.34503909      -0.96853727      -0.01014545      -0.00544746      -0.13109540
O       -6.76226178      -2.60927093      -8.17998717      -0.09424002       0.09684168       0.11517433
O       -3.45223564     -13.29934912      -3.60572495       0.14078473      -0.04323731       0.14808056
O       -6.76226178      -5.34503909      -3.60572495      -0.00667553      -0.00265114       0.12250486
O       -3.45223564     -10.56358096      -8.17998717       0.00962816       0.00551742       0.13168053
O       -0.04740317     -13.29934912      -0.96853727      -0.01831836       0.04949268      -0.18251093
O       -3.35742931      -2.60927093      -5.54279949      -0.01015492       0.00565058      -0.13185176
O       -0.65656120     -13.71825347      -6.06241097       0.00034625       0.06818559      -0.03106913
O       -2.74827127      -2.19036658      -1.48814875      -0.13894409      -0.04896593      -0.00476714
O       -6.15310375      -5.76394345      -7.66037569      -0.05200472       0.09108775      -0.09758265
O       -4.06139368     -10.14467660      -3.08611347       0.02471272      -0.05586103       0.05652144
O       -6.15310375      -2.19036658      -3.08611347      -0.00058653      -0.06908498       0.03100445
O       -4.06139368     -13.71825347      -7.66037569       0.00005206       0.06838427       0.03126279
O       -0.65656120     -10.14467660      -1.48814875       0.00063723      -0.06898694      -0.03115910
O       -2.74827127      -5.76394345      -6.06241097       0.00005230       0.06900665      -0.03098753
O       -6.19608166     -14.08071070      -5.40207267       0.01006741       0.00521043       0.04726126
O       -4.01841577      -1.82790935      -0.82781045      -0.01016998      -0.00544321       0.04745173
O       -0.61358329      -6.12640067      -8.32071399       0.04505847       0.06967430      -0.07610226
O       -2.79124918      -9.78221938      -3.74645177       0.00981684      -0.00510806      -0.04813126
O       -0.61358329      -1.82790935      -3.74645177      -0.01049770      -0.00509015      -0.04742845
O       -2.79124918     -14.08071070      -8.32071399       0.00837908       0.01410112      -0.04388273
O       -6.19608166      -9.78221938      -0.82781045       0.01045288      -0.00491189       0.04739261
O       -4.01841577      -6.12640067      -5.40207267      -0.00938085       0.00271609       0.05742852
O       -6.23240577     -15.48447842      -8.95273824       0.00345596      -0.02243944      -0.20325192
O       -3.98209165      -0.42414163      -4.37847602       0.01884097       0.00746009      -0.08219597
O       -0.57725918      -7.53016840      -4.77004842       0.02456378      -0.01586916       0.08471328
O       -2.82757330      -8.37845165      -0.19578620       0.00907989       0.02648004       0.01283737
O       -0.57725918      -0.42414163      -0.19578620       0.02440780       0.01578876       0.08508972
O       -2.82757330     -15.48447842      -4.77004842      -0.01348850      -0.03503804       0.07927464
O       -6.23240577      -8.37845165      -4.37847602      -0.02527304      -0.00728986      -0.06000650
O       -3.98209165      -7.53016840      -8.95273824       0.02437695      -0.01591463      -0.08494397
96
Lattice="-6.77995472 0.0 0.0 -0.0 0.0 -9.16545862 0.0 -15.91882994 0.0" Properties=species:S:1:pos:R:3:forces:R:3 energy=-526.2844754507217 pbc="T T T"
Na      -5.05879786     -15.75170674      -6.73797765      -0.00443049       0.01747727      -0.00456819
Na      -5.11113422      -0.16712320      -2.15524834       0.00370100      -0.01808526      -0.00458945
Na      -1.72115686      -7.79229177      -7.01021028       0.00424555       0.01793086       0.00517814
Na      -1.66882050      -8.12653817      -2.42748097       0.05839694      -0.14375833       0.01588375
Na      -1.72115686      -0.16712320      -2.42748097       0.00407105      -0.01817110       0.00508160
Na      -1.66882050     -15.75170674      -7.01021028      -0.00568224       0.06759600       0.06733657
Na      -5.05879786      -8.12653817      -2.15524834      -0.00365010      -0.01779271      -0.00480351
Na      -5.11113422      -7.79229177      -6.73797765       0.00427300       0.01768539      -0.00514391
Na      -5.13851399     -11.94521969      -9.16010636       0.00312377      -0.00042500      -0.00651576
Na      -5.03141809      -3.97361025      -4.57737705      -0.00510287       0.03641219       0.00141016
Na      -1.64144073      -3.98580472      -4.58808157      -0.00288464      -0.00070543       0.00654804
Na      -1.74853663     -11.93302522      -0.00535226       0.00298448       0.00007813       0.00630207
Na      -1.64144073      -3.97361025      -0.00535226       0.00700601      -0.00361077       0.01286172
Na      -1.74853663     -11.94521969      -4.58808157      -0.02086883      -0.00736838      -0.06999875
Na      -5.13851399     -11.93302522      -4.57737705      -0.01637696      -0.00469045      -0.00588998
Na      -5.03141809      -3.98580472      -9.16010636      -0.00329932      -0.00077834      -0.00620000
H       -0.35846875     -12.92641625      -6.65547046       0.03193681       0.12637567      -0.06785505
H       -3.03150861      -2.99241369      -2.07274115      -0.04443502      -0.12248395      -0.06271402
H       -6.42148597      -4.96700128      -7.09271747      -0.06883662       0.19380829       0.04577557
H       -3.74844611     -10.95182866      -2.50998816       0.03136471      -0.12708749       0.06809978
H       -6.42148597      -2.99241369      -2.50998816      -0.03127529      -0.12625458       0.06783272
H       -3.74844611     -12.92641625      -7.09271747       0.10698487       0.13097240       0.09429661
H       -0.35846875     -10.95182866      -2.07274115       0.10672315      -0.10284325      -0.08154088
H       -3.03150861      -4.96700128      -6.65547046      -0.03184425       0.12685505      -0.06836200
H       -6.47594209     -14.27996395      -4.44358674      -0.02229280       0.13012156      -0.06293238
H       -3.69398999      -1.63886599      -9.02631605      -0.06417169      -0.07061982      -0.09415539
H       -0.30401263      -6.32054898      -0.13914257      -0.06378517       0.07034583       0.09389534
H       -3.08596473      -9.59828096      -4.72187188       0.06454642      -0.07021572       0.09375499
H       -0.30401263      -1.63886599      -4.72187188      -0.06373211      -0.07010223       0.09388767
H       -3.08596473     -14.27996395      -0.13914257       0.06380232       0.07033471       0.09432991
H       -6.47594209      -9.59828096      -9.02631605       0.07421009      -0.07103209      -0.10886223
H       -3.69398999      -6.32054898      -4.44358674      -0.06383101       0.07005818      -0.09374787
H       -6.49765646     -14.60728216      -0.24964711       0.05762151      -0.00009771      -0.02499961
H       -3.67227562      -1.31154778      -4.83237642      -0.05775033       0.00003028      -0.02535438
H       -0.28229826      -6.64786719      -4.33308220      -0.04136948       0.01316033       0.02635433
H       -3.10767910      -9.27096275      -8.91581151       0.04331096      -0.01970448       0.02429995
H       -0.28229826      -1.31154778      -8.91581151      -0.05144395      -0.06573187      -0.11860337
H       -3.10767910     -14.60728216      -4.33308220       0.05869367      -0.02150990       0.00606006
H       -6.49765646      -9.27096275      -4.83237642       0.05994781       0.00006877      -0.03484182
H       -3.67227562      -6.64786719      -0.24964711      -0.05519436       0.01705594      -0.02211921
C       -0.02964434     -10.53427648      -6.85624497       0.02904796       0.12192933       0.09429626
C       -3.36033302      -5.38455346      -2.27351566      -0.01310489      -0.04190015       0.07982324
C       -6.75031038      -2.57486151      -6.89194296      -0.00640712       0.04495701      -0.09657905
C       -3.41962170     -13.34396843      -2.30921365       0.00609921      -0.04483473      -0.09657874
C       -6.75031038      -5.38455346      -2.30921365      -0.00577549      -0.04558232      -0.09680643
C       -3.41962170     -10.53427648      -6.89194296       0.01413111       0.04401106      -0.07670097
C       -0.02964434     -13.34396843      -2.27351566      -0.04472576      -0.03871221       0.03506312
C       -3.36033302      -2.57486151      -6.85624497      -0.00653353       0.04528752       0.09629354
O       -0.07697554     -11.64792121      -7.52518725       0.08014841      -0.06217087      -0.01425806
O       -3.31300182      -4.27090873      -2.94245794      -0.01537059       0.00315985       0.02759323
O       -6.70297918      -3.68850624      -6.22300068       0.00633036      -0.03040136       0.04496784
O       -3.46695290     -12.23032370      -1.64027137      -0.11810050       0.13964579      -0.01908750
O       -6.70297918      -4.27090873      -1.64027137       0.00638634       0.02992072       0.04427059
O       -3.46695290     -11.64792121      -6.22300068      -0.00626429      -0.02993146       0.04419978
O       -0.07697554     -12.23032370      -2.94245794      -0.04773436      -0.06283691       0.09347589
O       -3.31300182      -3.68850624      -7.52518725      -0.00266045      -0.02601655      -0.04606751
O       -6.74163292      -9.39690410      -7.48608594       0.00556574      -0.02020202       0.01426979
O       -3.42829916      -6.52192584      -2.90335663      -0.00507061       0.01992301       0.01413237
O       -0.03832180      -1.43748913      -6.26210199      -0.00546418      -0.02061580      -0.01411147
O       -3.35165556     -14.48134081      -1.67937268      -0.10506306       0.10691212       0.00784350
O       -0.03832180      -6.52192584      -1.67937268       0.02126012       0.11813649      -0.03570801
O       -3.35165556      -9.39690410      -6.26210199       0.00571349      -0.02054408      -0.01386043
O       -6.74163292     -14.48134081      -2.90335663      -0.00557543       0.03771397       0.03010721
O       -3.42829916      -1.43748913      -7.48608594      -0.01543202      -0.00131298       0.01492760
O       -0.05000759     -10.57351799      -5.55484425       0.01364932       0.02911578      -0.12193199
O       -3.33996977      -5.34531195      -0.97211494      -0.01306270      -0.02917450      -0.12151480
O       -6.72994713      -2.61410302      -8.19334368      -0.01345858       0.02900288       0.12238676
O       -3.43998495     -13.30472692      -3.61061437       0.01309358      -0.02948513       0.12171481
O       -6.72994713      -5.34531195      -3.61061437      -0.01584653      -0.04527018       0.12476373
O       -3.43998495     -10.57351799      -8.19334368       0.04791841       0.08843942       0.21919899
O       -0.05000759     -13.30472692      -0.97211494      -0.05843474      -0.08193151      -0.18152448
O       -3.33996977      -2.61410302      -5.55484425       0.07627232       0.03240078      -0.10604165
O       -0.65632633     -13.72257169      -6.07589415      -0.15615372      -0.17694703       0.07731535
O       -2.73365103      -2.19625825      -1.49316484       0.02240034       0.11003543       0.08577215
O       -6.12362839      -5.76315672      -7.67229378       0.01391471      -0.09148832      -0.07322240
O       -4.04630369     -10.15567322      -3.08956447      -0.02247569       0.10969507      -0.08489245
O       -6.12362839      -2.19625825      -3.08956447       0.02228396       0.11048587      -0.08518022
O       -4.04630369     -13.72257169      -7.67229378       0.14068797      -0.15525205      -0.08890839
O       -0.65632633     -10.15567322      -1.49316484      -0.02208929       0.11040366       0.08519487
O       -2.73365103      -5.76315672      -6.07589415       0.02278937      -0.11008060       0.08554911
O       -6.16388654     -14.08987052      -5.41724514      -0.12121974      -0.02509262       0.18304862
O       -4.00604554      -1.82895942      -0.83451583       0.06629385       0.14859128       0.12260559
O       -0.61606818      -6.13045555      -8.33094279       0.16212495      -0.02780240      -0.17985701
O       -2.77390918      -9.78837439      -3.74821348      -0.05329534      -0.03659503      -0.12686556
O       -0.61606818      -1.82895942      -3.74821348       0.09072591       0.10051772      -0.22321268
O       -2.77390918     -14.08987052      -8.33094279      -0.06930775      -0.01886768      -0.16334241
O       -6.16388654      -9.78837439      -0.83451583      -0.16684224       0.12029855       0.25703914
O       -4.00604554      -6.13045555      -5.41724514       0.07677754       0.00300074       0.18252145
O       -6.20247404     -15.49450445      -8.96708473      -0.11744774       0.02011049      -0.09883049
O       -3.96745804      -0.42432549      -4.38435542       0.11087579       0.00059025      -0.06864974
O       -0.57748068      -7.53508948      -4.78110320       0.05385547       0.06004338       0.03764127
O       -2.81249668      -8.38374046      -0.19837389      -0.09056161       0.01982770       0.09304203
O       -0.57748068      -0.42432549      -0.19837389       0.08463914      -0.00859724       0.09050461
O       -2.81249668     -15.49450445      -4.78110320      -0.08425388       0.00864342       0.09016999
O       -6.20247404      -8.38374046      -4.38435542      -0.18353424       0.03117636      -0.11739930
O       -3.96745804      -7.53508948      -8.96708473       0.08474689       0.00831239      -0.09015020
96
Lattice="-6.73550745 0.0 0.0 0.0 0.0 -9.18525326 0.0 -15.95588278 0.0" Properties=species:S:1:pos:R:3:forces:R:3 energy=-526.2064594004754 pbc="T T T"
Na      -5.02572003     -15.78755029      -6.75499847       0.00022744      -0.00690101       0.01273282
Na      -5.07754114      -0.16833249      -2.16237184      -0.00561969       0.01545266       0.01404086
Na      -1.70978742      -7.80960890      -7.02288142      -0.12019885       0.04857827      -0.06564871
Na      -1.65796631      -8.14627388      -2.43025479       0.00085189       0.00646474      -0.01287973
Na      -1.70978742      -0.16833249      -2.43025479      -0.01510740       0.05680423       0.06734109
Na      -1.65796631     -15.78755029      -7.02288142      -0.00047043      -0.01487385       0.01127192
Na      -5.02572003      -8.14627388      -2.16237184       0.00081441       0.00668965       0.01348121
Na      -5.07754114      -7.80960890      -6.75499847      -0.00021353      -0.00668667       0.01279738
Na      -5.10404597     -11.97376338      -9.18188778      -0.00383460       0.00364791       0.01042057
Na      -4.99921521      -3.98211940      -4.58926115       0.00438714      -0.00357713       0.01076113
Na      -1.63146148      -3.99582199      -4.59599211       0.00354387       0.00353189      -0.01077152
Na      -1.73629224     -11.96006079      -0.00336548      -0.00444222      -0.00347600      -0.01076403
Na      -1.63146148      -3.98211940      -0.00336548       0.00381164      -0.09703263      -0.05366855
Na      -1.73629224     -11.97376338      -4.59599211      -0.00392340       0.00311209      -0.01027249
Na      -5.10404597     -11.96006079      -4.58926115      -0.05693201       0.05785711       0.01705417
Na      -4.99921521      -3.99582199      -9.18188778      -0.01480182      -0.01900787       0.01509592
H       -0.35917141     -12.96115234      -6.68628515      -0.00396481      -0.03502795       0.16828838
H       -3.00858232      -2.99473044      -2.09365852       0.00049667       0.02321981       0.15212155
H       -6.37633604      -4.98321095      -7.09159474       0.00805016       0.00450131      -0.15697419
H       -3.72692513     -10.97267183      -2.49896811      -0.00015996       0.02295065      -0.15286016
H       -6.37633604      -2.99473044      -2.49896811      -0.02473553       0.04996816      -0.16241063
H       -3.72692513     -12.96115234      -7.09159474      -0.00064204      -0.02303927      -0.15233993
H       -0.35917141     -10.97267183      -2.09365852      -0.01330207       0.02573079       0.18905748
H       -3.00858232      -4.98321095      -6.68628515      -0.00806657      -0.01548521       0.17918340
H       -6.42537364     -14.33128607      -4.46555490      -0.05869296       0.09731556       0.12204085
H       -3.67788754      -1.62459671      -9.05818153       0.00148801      -0.09411040       0.03779139
H       -0.31013381      -6.35334468      -0.12707173       0.06404017       0.00426572      -0.07369817
H       -3.05761991      -9.60253810      -4.71969836      -0.07042183      -0.10610456      -0.11310687
H       -0.31013381      -1.62459671      -4.71969836       0.07011312      -0.10641590      -0.11346227
H       -3.05761991     -14.33128607      -0.12707173      -0.07015163       0.10661727      -0.11353143
H       -6.42537364      -9.60253810      -9.05818153      -0.07041534      -0.10694527       0.11346050
H       -3.67788754      -6.35334468      -4.46555490       0.07072899       0.10626740       0.11325802
H       -6.45736339     -14.63521053      -0.22843587      -0.01560233      -0.02008548      -0.16227045
H       -3.64589778      -1.32067225      -4.82106250      -0.04148468      -0.03572374      -0.20109182
H       -0.27814406      -6.65726914      -4.36419076       0.00649395      -0.01337330       0.16072589
H       -3.08960967      -9.29861364      -8.95681739      -0.00794363       0.00441185       0.15754118
H       -0.27814406      -1.32067225      -8.95681739      -0.00014814       0.00558640       0.12739400
H       -3.08960967     -14.63521053      -4.36419076       0.01976503      -0.00883119       0.15259912
H       -6.45736339      -9.29861364      -4.82106250       0.08652472      -0.04728362      -0.14443106
H       -3.64589778      -6.65726914      -0.22843587       0.00251327      -0.01339813      -0.15178255
C       -0.03035181     -10.55660065      -6.87173376      -0.00504545       0.01299358       0.21279924
C       -3.33740191      -5.39928213      -2.27910713      -0.00301196       0.00476779       0.18461849
C       -6.70515564      -2.57865926      -6.90614613       0.00237404       0.00211961      -0.18009799
C       -3.39810554     -13.37722352      -2.31351950       0.00354571       0.00412902      -0.18508854
C       -6.70515564      -5.39928213      -2.31351950      -0.00316813       0.00497301      -0.18475651
C       -3.39810554     -10.55660065      -6.90614613       0.00374336      -0.00451426      -0.18478732
C       -0.03035181     -13.37722352      -2.27910713       0.00310303       0.00473700       0.18539401
C       -3.33740191      -2.57865926      -6.87173376       0.00590703       0.00394695       0.19505002
O       -0.07189663     -11.67087653      -7.54461308      -0.03169260      -0.05809340       0.00315044
O       -3.29585710      -4.28500625      -2.95198645       0.00248281       0.06012702       0.01497153
O       -6.66361082      -3.69293514      -6.23326681      -0.03489674      -0.04014601       0.03783499
O       -3.43965035     -12.26294764      -1.64064018      -0.03546858       0.05118995      -0.01274841
O       -6.66361082      -4.28500625      -1.64064018       0.03143389       0.05811342      -0.00383615
O       -3.43965035     -11.67087653      -6.23326681      -0.06147347      -0.04949527       0.00443232
O       -0.07189663     -12.26294764      -2.95198645      -0.03543652       0.05325024       0.02102783
O       -3.29585710      -3.69293514      -7.54461308       0.00978804      -0.03051207      -0.00493384
O       -6.70168867      -9.41729365      -7.49419165       0.02645090       0.00558113      -0.07027335
O       -3.40157251      -6.53858913      -2.90156502      -0.00590583      -0.01375531      -0.08642511
O       -0.03381878      -1.43935226      -6.28368824      -0.03303714       0.01053437       0.09303174
O       -3.33393494     -14.51653052      -1.69106161       0.02668616      -0.00578038       0.07064035
O       -0.03381878      -6.53858913      -1.69106161      -0.05495977      -0.02065879       0.08586323
O       -3.33393494      -9.41729365      -6.28368824       0.02473368       0.01463909       0.06451664
O       -6.70168867     -14.51653052      -2.90156502       0.04959599       0.10723542      -0.13233983
O       -3.40157251      -1.43935226      -7.49419165      -0.00257728      -0.00815511      -0.07621352
O       -0.05325995     -10.60093359      -5.56950238       0.02339073       0.00875755      -0.10821879
O       -3.31449378      -5.35494919      -0.97687575      -0.01769220       0.00906079      -0.11796401
O       -6.68224750      -2.62299220      -8.20837751      -0.00943033      -0.00385774       0.08465947
O       -3.42101367     -13.33289058      -3.61575088       0.02987241      -0.02139401       0.10843172
O       -6.68224750      -5.35494919      -3.61575088      -0.02333376      -0.00851253       0.10811917
O       -3.42101367     -10.60093359      -8.20837751       0.02406137       0.00889728       0.10784967
O       -0.05325995     -13.33289058      -0.97687575       0.03702164      -0.01026913      -0.09724668
O       -3.31449378      -2.62299220      -5.56950238      -0.02377585       0.00917015      -0.10795513
O       -0.65795360     -13.75601650      -6.08627171      -0.04598908       0.05755745      -0.02338668
O       -2.70980013      -2.19986628      -1.49364508      -0.05609196      -0.07507010      -0.07042374
O       -6.07755385      -5.77807511      -7.69160818      -0.05664044       0.07526219       0.07038738
O       -4.02570732     -10.17780767      -3.09898155       0.05680978      -0.07483272       0.07045995
O       -6.07755385      -2.19986628      -3.09898155      -0.05623580      -0.07521571       0.06980955
O       -4.02570732     -13.75601650      -7.69160818       0.05647849       0.07524588       0.06977602
O       -0.65795360     -10.17780767      -1.49364508       0.05789739      -0.06690289      -0.08623626
O       -2.70980013      -5.77807511      -6.08627171      -0.05651432       0.07466829      -0.06967699
O       -6.12057300     -14.12408409      -5.42632192       0.00709507       0.03250358      -0.07186613
O       -3.98268818      -1.83179869      -0.83369529      -0.10821284       0.03188479      -0.04130243
O       -0.61493445      -6.14614270      -8.35155797      -0.01376308       0.01083324       0.05371987
O       -2.75281927      -9.80974008      -3.75893134       0.00549730      -0.01481684       0.06490922
O       -0.61493445      -1.83179869      -3.75893134       0.00387871      -0.01708065       0.09257803
O       -2.75281927     -14.12408409      -8.35155797       0.00556015       0.01509396       0.06477708
O       -6.12057300      -9.80974008      -0.83369529      -0.04759663      -0.01849757      -0.12434825
O       -3.98268818      -6.14614270      -5.42632192      -0.00501603       0.01451057      -0.06417868
O       -6.16203058     -15.52927529      -8.98745260       0.04110344      -0.04453125       0.03883296
O       -3.94123059      -0.42660749      -4.39482597      -0.09613133       0.00111808       0.10072830
O       -0.57347687      -7.55133390      -4.79042729       0.03765915      -0.08308645      -0.03974440
O       -2.79427686      -8.40454888      -0.19780066       0.03678383       0.04112503      -0.03109113
O       -0.57347687      -0.42660749      -0.19780066      -0.02627430       0.05369790      -0.05103098
O       -2.79427686     -15.52927529      -4.79042729       0.03147838      -0.04251587      -0.03980890
O       -6.16203058      -8.40454888      -4.39482597       0.02055477       0.03505656       0.05865917
O       -3.94123059      -7.55133390      -8.98745260       0.04420634      -0.08064201       0.04322316
96
Lattice="-6.66431234 0.0 0.0 0.0 0.0 -9.15570316 0.0 -15.8444297 0.0" Properties=species:S:1:pos:R:3:forces:R:3 energy=-525.4850971548993 pbc="T T T"
Na      -4.97384194     -15.67358793      -6.73547021       0.01726140      -0.04283141       0.02817806
Na      -5.02262657      -0.17084177      -2.15761863      -0.01705231       0.04348559       0.02863077
Na      -1.69047040      -7.75137308      -6.99808453      -0.02528061      -0.04936541      -0.02896544
Na      -1.64168577      -8.09305662      -2.42023295       0.02253817       0.03829846      -0.02164982
Na      -1.69047040      -0.17084177      -2.42023295      -0.04235808       0.04590887       0.00127007
Na      -1.64168577     -15.67358793      -6.99808453       0.01758576      -0.04320605      -0.02858203
Na      -4.97384194      -8.09305662      -2.15761863       0.01750509       0.04307924       0.02830786
Na      -5.02262657      -7.75137308      -6.73547021      -0.01664701      -0.04293966       0.02854800
Na      -5.04948015     -11.88955183      -9.15398134      -0.00696864      -0.01451583       0.02178765
Na      -4.94698836      -3.95487787      -4.57612976       0.00659515       0.01412275       0.02205780
Na      -1.61483219      -3.96733698      -4.57957340       0.00602372      -0.01476433      -0.02193340
Na      -1.71732398     -11.87709272      -0.00172182      -0.00627253       0.01461259      -0.02140332
Na      -1.61483219      -3.95487787      -0.00172182       0.00681149       0.01435507      -0.02216306
Na      -1.71732398     -11.88955183      -4.57957340      -0.02493285      -0.02222929      -0.02841877
Na      -5.04948015     -11.87709272      -4.57612976      -0.00141436       0.00666617       0.02531961
Na      -4.94698836      -3.96733698      -9.15398134       0.00630909      -0.01484854       0.02223417
H       -0.34364587     -12.88579760      -6.66754176      -0.25937377       0.05151703       0.08207375
H       -2.98851030      -2.95863210      -2.08969018       0.25855736      -0.05165303       0.08203782
H       -6.32066647      -4.96358275      -7.06601298       0.25870689       0.05139629      -0.08203270
H       -3.67580204     -10.88084695      -2.48816140      -0.25867348      -0.05156191      -0.08149858
H       -6.32066647      -2.95863210      -2.48816140       0.25675486      -0.03520073      -0.08366483
H       -3.67580204     -12.88579760      -7.06601298      -0.37963427       0.06748238      -0.15614588
H       -0.34364587     -10.88084695      -2.08969018      -0.25922125      -0.05219163       0.08187142
H       -2.98851030      -4.96358275      -6.66754176       0.26271697       0.04212712       0.09376118
H       -6.36827586     -14.24151498      -4.47046132       0.24153870       0.10830169       0.09657927
H       -3.62819265      -1.60291472      -9.04831290      -0.21693066       0.05469806       0.05196219
H       -0.29603648      -6.31930013      -0.10739026      -0.25913621       0.12467073      -0.10040681
H       -3.03611969      -9.52512957      -4.68524184       0.24108615      -0.10844589      -0.09637177
H       -0.29603648      -1.60291472      -4.68524184      -0.35321415      -0.06605781      -0.07920125
H       -3.03611969     -14.24151498      -0.10739026       0.24153894       0.10820057      -0.09560204
H       -6.36827586      -9.52512957      -9.04831290       0.24092367      -0.11584099       0.08596726
H       -3.62819265      -6.31930013      -4.47046132      -0.30341791       0.15054158       0.02140453
H       -6.43176216     -14.58734390      -0.21598679       0.75248714       0.46968441       0.09598201
H       -3.56470635      -1.25708580      -4.79383837      -0.75321900      -0.46916857       0.09591859
H       -0.23255018      -6.66512905      -4.36186479      -0.75321534       0.46953347      -0.09682926
H       -3.09960599      -9.17930065      -8.93971637       0.75317831      -0.46947091      -0.09592703
H       -0.23255018      -1.25708580      -8.93971637      -0.75299269      -0.47026711      -0.09650578
H       -3.09960599     -14.58734390      -4.36186479       0.75357681       0.46925032      -0.09612994
H       -6.43176216      -9.17930065      -4.79383837       0.68943770      -0.19187994       0.19473866
H       -3.56470635      -6.66512905      -0.21598679      -0.74433255       0.47615151       0.09385690
C       -0.02979287     -10.48303943      -6.84285013       0.00906406      -0.16932494      -0.26591844
C       -3.30236330      -5.36139027      -2.26499855       0.01604035       0.16598565      -0.24832851
C       -6.63451947      -2.56082458      -6.89070461       0.06876166      -0.12378700       0.31080130
C       -3.36194904     -13.28360512      -2.31285303      -0.01654938       0.16603809       0.24887362
C       -6.63451947      -5.36139027      -2.31285303       0.01604568       0.16649951       0.24874100
C       -3.36194904     -10.48303943      -6.89070461      -0.00726869      -0.17526903       0.26082827
C       -0.02979287     -13.28360512      -2.26499855      -0.00733926       0.15558471      -0.16998976
C       -3.30236330      -2.56082458      -6.84285013       0.01640240      -0.16599622      -0.24847096
O       -0.07181283     -11.59822537      -7.53467804      -0.05142012       0.34144161       0.37980679
O       -3.26034334      -4.24620433      -2.95682646      -0.14533206      -0.41950955       0.34763593
O       -6.59249951      -3.67601052      -6.19887670      -0.06132413       0.32396663      -0.26472219
O       -3.40396900     -12.16841918      -1.62102512      -0.04857157      -0.32818992      -0.33631563
O       -6.59249951      -4.24620433      -1.62102512       0.03800372      -0.40228396      -0.32310203
O       -3.40396900     -11.59822537      -6.19887670       0.03120366       0.32895640      -0.34638120
O       -0.07181283     -12.16841918      -2.95682646       0.03427188      -0.32785170       0.35825393
O       -3.26034334      -3.67601052      -7.53467804      -0.03041652       0.32909471       0.34695854
O       -6.63155471      -9.33657531      -7.46433194      -0.02492615      -0.27691614       0.03162215
O       -3.36491380      -6.50785439      -2.88648036       0.01031790       0.28306560       0.03593990
O       -0.03275763      -1.41436046      -6.26922280       0.01819251      -0.25825967      -0.02401088
O       -3.29939854     -14.43006924      -1.69137122      -0.01068001       0.28350444      -0.03557061
O       -0.03275763      -6.50785439      -1.69137122       0.01068697       0.28358022      -0.03580569
O       -3.29939854      -9.33657531      -6.26922280      -0.01704366      -0.28475017      -0.02853196
O       -6.63155471     -14.43006924      -2.88648036      -0.01688894       0.27778083       0.06106572
O       -3.36491380      -1.41436046      -7.46433194       0.00336427      -0.26077501       0.06633814
O       -0.05008904     -10.53990746      -5.54531779      -0.03972320       0.23013013      -0.16306851
O       -3.28206713      -5.30452224      -0.96746621       0.02260688      -0.23984233      -0.18018229
O       -6.61422330      -2.61769261      -8.18823695       0.00516536       0.22288285       0.15768646
O       -3.38224521     -13.22673709      -3.61038537      -0.03947752      -0.23006613       0.16302198
O       -6.61422330      -5.30452224      -3.61038537       0.03999485      -0.23011842       0.16363907
O       -3.38224521     -10.53990746      -8.18823695      -0.04528434       0.26350665       0.16809071
O       -0.05008904     -13.22673709      -0.96746621      -0.03915863      -0.22996273      -0.16377675
O       -3.28206713      -2.61769261      -5.54531779       0.03976992       0.23029687      -0.16373390
O       -0.66336805     -13.66159823      -6.05227192       0.23309903       0.20168603      -0.33330127
O       -2.66878812      -2.18283147      -1.47442034      -0.30984532      -0.20883976      -0.35116925
O       -6.00094429      -5.73938338      -7.68128282      -0.17211665       0.23883756       0.36976921
O       -3.99552422     -10.10504632      -3.10343124       0.17195188      -0.23892277       0.36957884
O       -6.00094429      -2.18283147      -3.10343124      -0.24624107      -0.28623140       0.24608519
O       -3.99552422     -13.66159823      -7.68128282       0.17240034       0.23867557       0.36935655
O       -0.66336805     -10.10504632      -1.47442034       0.17234905      -0.23919778      -0.36999035
O       -2.66878812      -5.73938338      -6.05227192      -0.17203624       0.23949462      -0.36937771
O       -6.04154868     -14.01748045      -5.42248653      -0.17857912      -0.18434768       0.37476918
O       -3.95491983      -1.82694925      -0.84463495       0.22464350       0.27389642       0.44112979
O       -0.62276366      -6.09526560      -8.31106821       0.17876162      -0.17525200      -0.37921640
O       -2.70939251      -9.74916410      -3.73321663      -0.16217875       0.16206392      -0.37799993
O       -0.62276366      -1.82694925      -3.73321663       0.18144041       0.14016575      -0.37959943
O       -2.70939251     -14.01748045      -8.31106821      -0.18267700      -0.18426672      -0.37767180
O       -6.04154868      -9.74916410      -0.84463495      -0.18815644       0.18340492       0.38110686
O       -3.95491983      -6.09526560      -5.42248653       0.15481346      -0.15644933       0.38405510
O       -6.07773476     -15.45298625      -8.94091448      -0.42923254       1.04243389      -0.30388180
O       -3.91873375      -0.39144345      -4.36306290       0.27813349      -0.95406327      -0.40330789
O       -0.58657758      -7.53077140      -4.79264026       0.23044380       0.97059432       0.35556238
O       -2.74557859      -8.31365830      -0.21478868      -0.27706872      -0.95385757       0.40234802
O       -0.58657758      -0.39144345      -0.21478868       0.27699076      -0.95394462       0.40400658
O       -2.74557859     -15.45298625      -4.79264026      -0.23601904       1.20140937       0.27080550
O       -6.07773476      -8.31365830      -4.36306290      -0.27765943      -0.95420301      -0.40376214
O       -3.91873375      -7.53077140      -8.94091448       0.27763764       0.95503775      -0.40301235
96
Lattice="-6.69948131 0.0 0.0 0.0 0.0 -9.2982619 0.0 -16.09361711 0.0" Properties=species:S:1:pos:R:3:forces:R:3 energy=-517.0557322120181 pbc="T T T"
Na      -5.00008733     -15.92383605      -6.83981094       0.02535633       0.17685330       0.08345155
Na      -5.04913463      -0.16978106      -2.19067999      -0.05728063      -0.18150856       0.06642342
Na      -1.69939398      -7.87702749      -7.10758191      -0.05663701       0.18165530      -0.06707454
Na      -1.65034668      -8.21658962      -2.45845096       0.05715369      -0.18118120      -0.06639436
Na      -1.69939398      -0.16978106      -2.45845096      -0.04272545      -0.15578781      -0.09245673
Na      -1.65034668     -15.92383605      -7.10758191       0.05329753       0.19567718      -0.05196996
Na      -5.00008733      -8.21658962      -2.19067999       0.05701048      -0.18104058       0.06646318
Na      -5.04913463      -7.87702749      -6.83981094      -0.05656113       0.18113496       0.06641203
Na      -5.07630746     -12.07710396      -9.29581860      -0.01992222       0.01545319       0.01704945
Na      -4.97291450      -4.01651315      -4.64668765       0.01285113      -0.14838707       0.00262584
Na      -1.62317385      -4.03029540      -4.65157425       0.08601997      -0.07289666      -0.13971376
Na      -1.72656681     -12.06332171      -0.00244330      -0.02005123      -0.01546349      -0.01678058
Na      -1.62317385      -4.01651315      -0.00244330      -0.00458595      -0.06601744       0.04201895
Na      -1.72656681     -12.07710396      -4.65157425      -0.11872562       0.03388406      -0.06448591
Na      -5.07630746     -12.06332171      -4.64668765      -0.01953783      -0.01498272       0.01639272
Na      -4.97291450      -4.03029540      -9.29581860      -0.00463400      -0.01597551       0.01221934
H       -0.35043627     -13.07860364      -6.77232834      -0.55963697      -0.55713597       0.37776142
H       -2.99930439      -3.01501347      -2.12319739       0.57159135       0.53401753       0.37157573
H       -6.34904504      -5.03179508      -7.17506451       0.55899875      -0.55706064      -0.37720049
H       -3.70017692     -11.06182203      -2.52593356      -0.55270894       0.53089555      -0.38344714
H       -6.34904504      -3.01501347      -2.52593356       0.60575378       0.52098119      -0.38096808
H       -3.70017692     -13.07860364      -7.17506451      -0.56017808      -0.65461407      -0.35878046
H       -0.35043627     -11.06182203      -2.12319739      -0.52551791       0.55516213       0.37576727
H       -2.99930439      -5.03179508      -6.77232834       0.55879292      -0.55747411       0.37793205
H       -6.42401432     -14.47979892      -4.46013745       1.28969471       0.35183723      -1.66422956
H       -3.62520765      -1.61381819      -9.10926840      -1.24704061      -0.88145860      -2.53707287
H       -0.27546699      -6.43299036      -0.18899350      -1.03310612       0.26134984       1.74668373
H       -3.07427366      -9.66062675      -4.83812445       1.18133840      -0.58811471       1.92865977
H       -0.27546699      -1.61381819      -4.83812445      -1.16090823      -0.57727076       1.94317220
H       -3.07427366     -14.47979892      -0.18899350       0.99295276       0.61521383       1.89618937
H       -6.42401432      -9.66062675      -9.10926840       1.16181224      -0.57895611      -1.94107330
H       -3.62520765      -6.43299036      -4.46013745      -1.04745465       0.87531626      -1.81119195
H       -6.48269735     -14.70805919      -0.26366533       1.62903587      -1.40468094       1.03709733
H       -3.56652462      -1.38555792      -4.91279628      -1.62296279       1.47262076       1.01992507
H       -0.21678396      -6.66125064      -4.38546562      -1.62296545      -1.47254936      -1.02120686
H       -3.13295669      -9.43236647      -9.03459657       1.62188496       1.47377629      -1.02077892
H       -0.21678396      -1.38555792      -9.03459657      -1.53595981       1.40026012      -0.98140642
H       -3.13295669     -14.70805919      -4.38546562       1.51177317      -1.59028798      -1.06663917
H       -6.48269735      -9.43236647      -4.91279628       1.47806518       1.21874077       0.37415239
H       -3.56652462      -6.66125064      -0.26366533      -1.64657946      -1.48367980       1.02598159
C       -0.03033525     -10.63904705      -6.94213543      -0.01079812      -0.88094199      -1.21780343
C       -3.31940540      -5.45457006      -2.29300448      -0.07125993       0.87300502      -1.16472585
C       -6.66914606      -2.59223850      -7.00525742      -0.11975189      -1.17019951       1.03307298
C       -3.38007591     -13.50137861      -2.35612647       0.02370526       0.90464357       1.23826348
C       -6.66914606      -5.45457006      -2.35612647       0.01743479       0.92371101       1.21310809
C       -3.38007591     -10.63904705      -7.00525742      -0.05680589      -0.90949632       1.23398796
C       -0.03033525     -13.50137861      -2.29300448      -0.04884319       0.93339395      -1.20321567
C       -3.31940540      -2.59223850      -6.94213543       0.02346189      -0.90009013      -1.17651790
O       -0.07286255     -11.81430034      -7.66781642       0.12458512       2.98156160       2.02786242
O       -3.27687810      -4.27931677      -3.01868547      -0.12738827      -2.97848389       2.03130232
O       -6.62661876      -3.76749179      -6.27957643      -0.12318559       2.97850530      -2.02887508
O       -3.42260321     -12.32612532      -1.63044548       0.35932471      -3.14392240      -1.22871767
O       -6.62661876      -4.27931677      -1.63044548       0.27471127      -3.17780808      -2.59592698
O       -3.42260321     -11.81430034      -6.27957643       0.06793495       3.03392919      -2.01779911
O       -0.07286255     -12.32612532      -3.01868547       0.22680809      -2.98794207       1.84702168
O       -3.27687810      -3.76749179      -7.66781642      -0.16745639       2.97941586       2.07240419
O       -6.66626200      -9.46053078      -7.59084754      -0.03134991      -2.32467415       0.66450147
O       -3.38295997      -6.63308633      -2.94171659       0.03021555       2.32610815       0.66661758
O       -0.03321931      -1.41372223      -6.35654531       0.01139017      -2.29529301      -0.64137211
O       -3.31652134     -14.67989488      -1.70741436      -0.03094021       2.32483479      -0.66700708
O       -0.03321931      -6.63308633      -1.70741436      -0.15666410       2.34406344      -0.81217823
O       -3.31652134      -9.46053078      -6.35654531      -0.08737699      -2.17937648      -0.58184257
O       -6.66626200     -14.67989488      -2.94171659       0.62087026       2.51047360       0.42285246
O       -3.38295997      -1.41372223      -7.59084754      -0.50779778      -2.36530818       0.02480639
O       -0.05347010     -10.70490648      -5.60958627       0.14254676       0.81625738      -1.84639986
O       -3.29627055      -5.38871063      -0.96045532      -0.04559938      -0.82429014      -1.76670701
O       -6.64601121      -2.65809792      -8.33780658      -0.12610329       0.93881287       1.77807794
O       -3.40321076     -13.43551919      -3.68867563      -0.16074452      -1.17131175       1.74017396
O       -6.64601121      -5.38871063      -3.68867563      -0.19714977      -0.92016593       1.79298738
O       -3.40321076     -10.70490648      -8.33780658       0.14082741       0.81750652       1.70853701
O       -0.05347010     -13.43551919      -0.96045532       0.12492695      -0.93913562      -1.77710853
O       -3.29627055      -2.65809792      -5.60958627      -0.07889679       0.99767834      -1.80672467
O       -0.65730065     -13.87917499      -6.15018331      -0.08502861       1.00637263      -1.02895768
O       -2.69244001      -2.21444212      -1.50105236       0.08556095      -1.00705010      -1.02827652
O       -6.04218066      -5.83236643      -7.79720954       0.08215380       0.99684097       1.04084800
O       -4.00704130     -10.26125068      -3.14807859       0.09139540      -0.76575125       1.36545020
O       -6.04218066      -2.21444212      -3.14807859       0.08459550      -1.00652347       1.02878637
O       -4.00704130     -13.87917499      -7.79720954      -0.08467933       1.00608452       1.03037637
O       -0.65730065     -10.26125068      -1.50105236       0.21270729      -0.82472684      -1.08453590
O       -2.69244001      -5.83236643      -6.15018331       0.05523938       0.89751343      -1.03105165
O       -6.05545381     -14.22314660      -5.58420015      -0.61677218      -1.29363282       3.61615444
O       -3.99376816      -1.87047051      -0.93506920      -0.16616174       0.67691196       3.65934938
O       -0.64402750      -6.17633805      -8.36319270       0.64228651      -0.89307695      -3.47632051
O       -2.70571315      -9.91727906      -3.71406175      -0.64315038       0.89321076      -3.47131085
O       -0.64402750      -1.87047051      -3.71406175       1.05051283       0.44705058      -3.66873606
O       -2.70571315     -14.22314660      -8.36319270      -0.50987728      -0.80651950      -3.54959427
O       -6.05545381      -9.91727906      -0.93506920      -0.71977481       0.78360254       3.60224324
O       -3.99376816      -6.17633805      -5.58420015      -0.00092499      -0.28041780       3.25868102
O       -6.08582008     -15.77497942      -9.04425031      -0.72830520       4.07101586      -1.60027501
O       -3.96340189      -0.31863769      -4.39511936       0.91788283      -3.85443339      -1.75815809
O       -0.61366123      -7.72817087      -4.90314254       0.76127725       4.12499010       1.43754820
O       -2.73607942      -8.36544624      -0.25401159      -0.72763088      -4.06829325       1.60492207
O       -0.61366123      -0.31863769      -0.25401159       0.72930256      -4.07480616       1.60417864
O       -2.73607942     -15.77497942      -4.90314254      -1.08875465       4.23242702       1.30649150
O       -6.08582008      -8.36544624      -4.39511936      -0.28040076      -3.40028623      -2.11419024
O       -3.96340189      -7.72817087      -9.04425031       0.54769904       4.14247126      -1.77407004
96
Lattice="-6.6521 0.0 0.0 0.0 0.0 -9.1062 0.0 -15.7579 0.0" Properties=species:S:1:pos:R:3:forces:R:3 energy=-523.9810274397615 pbc="T T T"
Na      -4.96472831     -15.58661163      -6.69924922       0.00048157      -0.10441785       0.01475066
Na      -5.01342169      -0.17128837      -2.14614922       0.01366782       0.08725529       0.01394469
Na      -1.68737169      -7.70766163      -6.96005078      -0.00004024      -0.10417362      -0.01479340
Na      -1.63867831      -8.05023837      -2.40695078      -0.00660016       0.12318496      -0.03818483
Na      -1.68737169      -0.17128837      -2.40695078       0.00235422       0.10585930      -0.02718883
Na      -1.63867831     -15.58661163      -6.96005078       0.00308520      -0.11730163      -0.00829185
Na      -4.96472831      -8.05023837      -2.14614922      -0.09578008       0.19231522       0.08967454
Na      -5.01342169      -7.70766163      -6.69924922      -0.00161209      -0.11487960       0.00872813
Na      -5.04016313     -11.82441300      -9.10474301      -0.00545988      -0.01584139       0.01963557
Na      -4.93798687      -3.93348700      -4.55164301       0.00481618       0.01530658       0.01952465
Na      -1.61193687      -3.94546300      -4.55455699       0.00415298      -0.00768921      -0.03644777
Na      -1.71411313     -11.81243700      -0.00145699      -0.00513630       0.01534775      -0.01910699
Na      -1.61193687      -3.93348700      -0.00145699       0.00484124      -0.00099446       0.01267855
Na      -1.71411313     -11.82441300      -4.55455699       0.06565519      -0.06767316       0.10740563
Na      -5.04016313     -11.81243700      -4.55164301      -0.00472079       0.01599608       0.01969536
Na      -4.93798687      -3.94546300      -9.10474301       0.00484200      -0.01603055       0.01975893
H       -0.34125273     -12.81905165      -6.63113484      -0.18182280       0.34111092       0.06297925
H       -2.98479727      -2.93884835      -2.07803484       0.13917524      -0.27554571      -0.02698684
H       -6.31084727      -4.94010165      -7.02816516       0.12411937       0.27229099       0.00331052
H       -3.66730273     -10.81779835      -2.47506516      -0.13911358      -0.27461590       0.02699540
H       -6.31084727      -2.93884835      -2.47506516       0.13895579      -0.27531983       0.02663716
H       -3.66730273     -12.81905165      -7.02816516      -0.13880937       0.27524093       0.02752403
H       -0.34125273     -10.81779835      -2.07803484      -0.13911010      -0.27551543      -0.02684516
H       -2.98479727      -4.94010165      -6.63113484       0.13926625       0.27468315      -0.02715200
H       -6.34876424     -14.15847315      -4.47569730      -0.57241185      -0.38751997       2.28641568
H       -3.62938576      -1.59942685      -9.02879730       0.67634020       0.24153326       2.25347443
H       -0.30333576      -6.27952315      -0.07740270       0.61823423      -0.40051774      -2.23088796
H       -3.02271424      -9.47837685      -4.63050270      -0.69461557       0.65762083      -2.03543887
H       -0.30333576      -1.59942685      -4.63050270       0.63916074       0.54633093      -2.15346117
H       -3.02271424     -14.15847315      -0.07740270      -0.52760901      -0.29136072      -2.17996340
H       -6.34876424      -9.47837685      -9.02879730      -0.61926408       0.40051804       2.23247153
H       -3.62938576      -6.27952315      -4.47569730       0.49268556      -0.30016782       2.29574892
H       -6.41395482     -14.54769328      -0.19851516      -0.47149438       3.03485477      -1.23750127
H       -3.56419518      -1.21020672      -4.75161516       0.53019493      -3.08386566      -1.07380254
H       -0.23814518      -6.66874328      -4.35458484       0.47466273       3.03470801       1.23506501
H       -3.08790482      -9.08915672      -8.90768484      -0.38159627      -3.03314232       1.20777180
H       -0.23814518      -1.21020672      -8.90768484       0.47560267      -3.03754547       1.23651185
H       -3.08790482     -14.54769328      -4.35458484      -0.47207770       3.03761194       1.23680919
H       -6.41395482      -9.08915672      -4.75161516      -0.47371397      -3.03442634      -1.23860699
H       -3.56419518      -6.66874328      -0.19851516       0.47397459       3.03760082      -1.23854739
C       -0.02960184     -10.42905096      -6.80852362      -0.01064052       0.24740241       0.20229646
C       -3.29644815      -5.32884904      -2.25542362       0.01910409      -0.22620995       0.20645169
C       -6.62249816      -2.55010096      -6.85077638       0.01106709       0.24776864      -0.20299700
C       -3.35565184     -13.20779904      -2.29767638      -0.01044202      -0.24783314      -0.20277137
C       -6.62249816      -5.32884904      -2.29767638      -0.00390042      -0.25203412      -0.18355908
C       -3.35565184     -10.42905096      -6.85077638       0.06529776       0.24034574      -0.16055323
C       -0.02960184     -13.20779904      -2.25542362      -0.01084342      -0.24697761       0.20262200
C       -3.29644815      -2.55010096      -6.80852362       0.01128461       0.24622301       0.19280874
O       -0.07144355     -11.52249164      -7.48811932      -0.10570143      -0.86064948      -0.42128706
O       -3.25460645      -4.23540836      -2.93501932      -0.06307998       0.72839945      -0.44095590
O       -6.58065645      -3.64354164      -6.17118068       0.01834027      -0.93978462       0.44168122
O       -3.39749355     -12.11435836      -1.61808068      -0.07348608       0.90390569       0.46604012
O       -6.58065645      -4.23540836      -1.61808068       0.03978626       0.93548169       0.45663174
O       -3.39749355     -11.52249164      -6.17118068      -0.14222493      -1.13452539       0.18790571
O       -0.07144355     -12.11435836      -2.93501932      -0.01815976       0.94036570      -0.44146011
O       -3.25460645      -3.64354164      -7.48811932       0.05127038      -0.96377442      -0.38214140
O       -6.61950471      -9.29400942      -7.42018707       0.00767276       0.63875303      -0.28720003
O       -3.35864529      -6.46389058      -2.86708707      -0.00862225      -0.63897674      -0.28711709
O       -0.03259529      -1.41505942      -6.23911293      -0.00834528       0.63949266       0.28751779
O       -3.29345471     -14.34284058      -1.68601293       0.00739252      -0.63900105       0.28744606
O       -0.03259529      -6.46389058      -1.68601293       0.03037083      -0.43249508       0.30179165
O       -3.29345471      -9.29400942      -6.23911293      -0.13964273       0.70753306       0.19422272
O       -6.61950471     -14.34284058      -2.86708707       0.01559948      -0.62216728      -0.27640035
O       -3.35864529      -1.41505942      -7.42018707       0.00053178       0.64641471      -0.31808966
O       -0.04889293     -10.48262782      -5.52345667      -0.18188488       0.12182717       0.56895516
O       -3.27715706      -5.27527218      -0.97035667       0.15300218       0.06872765       0.65158250
O       -6.60320707      -2.60367782      -8.13584333       0.28515950      -0.03826949      -0.58053210
O       -3.37494293     -13.15422218      -3.58274333       0.10923589      -0.10179532      -0.59620419
O       -6.60320707      -5.27527218      -3.58274333       0.15165822      -0.16409812      -0.76254128
O       -3.37494293     -10.48262782      -8.13584333      -0.08706327       0.02176021      -0.61623878
O       -0.04889293     -13.15422218      -0.97035667      -0.09326833      -0.00591614       0.60691356
O       -3.27715706      -2.60367782      -5.52345667       0.06208277       0.04985445       0.64004481
O       -0.66554260     -13.58598864      -6.01819652       0.26713003      -0.07573334      -0.10307171
O       -2.66050740      -2.17191136      -1.46509652      -0.26692685       0.07560687      -0.10288025
O       -5.98655740      -5.70703864      -7.64110348      -0.26756813      -0.07562441       0.10245904
O       -3.99159260     -10.05086136      -3.08800348       0.29682395       0.10145839       0.17241000
O       -5.98655740      -2.17191136      -3.08800348      -0.26683230       0.07625614       0.10268307
O       -3.99159260     -13.58598864      -7.64110348       0.26614572      -0.08477904       0.11149804
O       -0.66554260     -10.05086136      -1.46509652       0.26756918       0.07595372      -0.10295924
O       -2.66050740      -5.70703864      -6.01819652      -0.26737637      -0.08642289      -0.11117663
O       -6.03684727     -13.94637182      -5.36473561       0.50313368       0.41418391      -2.15899643
O       -3.94130273      -1.81152818      -0.81163561      -0.49740064      -0.27432106      -2.11792063
O       -0.61525273      -6.06742182      -8.29456439      -0.50277205       0.41189568       2.15949963
O       -2.71079727      -9.69047818      -3.74146439       0.81534978      -0.25716127       1.50205812
O       -0.61525273      -1.81152818      -3.74146439      -0.50380126      -0.41397448       2.15757277
O       -2.71079727     -13.94637182      -8.29456439       0.50072009       0.41293995       2.15995556
O       -6.03684727      -9.69047818      -0.81163561       0.53268615      -0.45229533      -1.97161334
O       -3.94130273      -6.06742182      -5.36473561      -0.50294906       0.41476624      -2.15794457
O       -6.07509685     -15.33952776      -8.90577254       0.67071169      -2.20548010       1.00070483
O       -3.90305315      -0.41837224      -4.35267254      -0.67205527       2.32642824       0.95427905
O       -0.57700315      -7.46057775      -4.75352746      -0.66928915      -2.20638863      -1.00377151
O       -2.74904685      -8.29732224      -0.20042746       0.56572060       2.13221994      -0.90372690
O       -0.57700315      -0.41837224      -0.20042746      -1.13448316       2.36284442      -0.53621231
O       -2.74904685     -15.33952776      -4.75352746       0.66834077      -2.20409317      -1.00270677
O       -6.07509685      -8.29732224      -4.35267254       0.67173985       2.20611081       1.00225900
O       -3.90305315      -7.46057775      -8.90577254      -0.67724886      -2.28569514       0.92835048
96
Lattice="6.871644 0.0 0.0 0.0 9.158787 0.0 0.0 0.0 15.92961" Properties=species:S:1:pos:R:3:forces:R:3 energy=-526.9172288501682 pbc="T T T"
Na       1.73848470       7.01037370       8.14152809      -0.01742777      -0.00345271       0.01147337
Na       1.69733730       2.43098020       7.78808191       0.01765922      -0.00321516      -0.01130026
Na       5.13315930       6.72780680       0.17672309       0.00619274       0.01000593       0.01570597
Na       5.17430670       2.14841330      15.75288691      -0.01718909       0.00386689      -0.01124698
Na       5.13315930       2.14841330       7.78808191       0.01695072       0.00366546      -0.01097064
Na       5.17430670       6.72780680       8.14152809      -0.01542115      -0.00839969       0.00436931
Na       1.73848470       2.43098020      15.75288691      -0.00314975       0.07256385       0.00920300
Na       1.69733730       7.01037370       0.17672309       0.01715988      -0.00389834       0.01079172
Na       1.66330205       4.58783790      11.94317731       0.00202305       0.00434005       0.00343506
Na       1.77251995       0.00844440       3.98643269      -0.00258604       0.00481883      -0.00351799
Na       5.20834195       9.15034260       3.97837231      -0.00192321      -0.00438717       0.00298226
Na       5.09912405       4.57094910      11.95123769      -0.06629830      -0.01507684       0.03655627
Na       5.20834195       4.57094910       3.98643269      -0.00192808      -0.00467838      -0.00338342
Na       5.09912405       9.15034260      11.94317731       0.00226084      -0.00413088       0.00293932
Na       1.66330205       0.00844440      11.95123769       0.00234203       0.00478642      -0.00269298
Na       1.77251995       4.58783790       3.97837231      -0.00208693       0.00454241       0.00356627
H        6.50970077       7.09397511      10.96858784      -0.11109088      -0.00020896      -0.03898525
H        3.79776523       2.51458161       4.96102216       0.01155848       0.00740765       0.01059175
H        0.36194323       6.64420539       3.00378284       0.01081166      -0.00741687      -0.01050711
H        3.07387877       2.06481189      12.92582716      -0.00182044      -0.03898628      -0.01155631
H        0.36194323       2.06481189       4.96102216      -0.09041121       0.10066792      -0.03624912
H        3.07387877       6.64420539      10.96858784      -0.01162592      -0.00696319      -0.01035311
H        6.50970077       2.51458161      12.92582716       0.00015933       0.03546328      -0.01527264
H        3.79776523       7.09397511       3.00378284       0.01100819       0.00753139      -0.01061892
H        0.30556827       0.15235642       9.62334820      -0.00957429      -0.01106352       0.00464519
H        3.13025373       4.73174992       6.30626180      -0.00879526      -0.00192902      -0.01611864
H        6.56607573       4.42703708       1.65854320      -0.01908703      -0.07029068      -0.03798959
H        3.74139027       9.00643058      14.27106680       0.00589816       0.00558937      -0.00481603
H        6.56607573       9.00643058       6.30626180      -0.00649471       0.00519280      -0.00450530
H        3.74139027       4.42703708       9.62334820      -0.10334101       0.08706887       0.04830921
H        0.30556827       4.73174992      14.27106680      -0.03992702      -0.07112547      -0.12807876
H        3.13025373       0.15235642       1.65854320      -0.00649579      -0.00505519       0.00469144
H        0.29395519       4.30958479       9.27253040       0.03650344       0.01783085      -0.04654051
H        3.14186681       8.88897829       6.65707960      -0.03054325       0.00295372       0.01462500
H        6.57768881       0.26980871       1.30772540      -0.03064100      -0.00320955      -0.01516901
H        3.72977719       4.84920221      14.62188460       0.02973658      -0.00295801       0.01511802
H        6.57768881       4.84920221       6.65707960      -0.03058599      -0.00275362       0.01505955
H        3.72977719       0.26980871       9.27253040       0.02981210      -0.00337529      -0.01498470
H        0.29395519       8.88897829      14.62188460       0.03416688      -0.00268388       0.00614379
H        3.14186681       4.30958479       1.30772540      -0.03029529       0.00338037      -0.01459825
C        6.84385507       6.88696820      13.35074951      -0.00268618       0.00427408       0.02582015
C        3.46361093       2.30757470       2.57886049       0.00217291       0.00501481      -0.02542171
C        0.02778893       6.85121230       5.38594451       0.03100523      -0.02395611       0.01740203
C        3.40803307       2.27181880      10.54366549       0.00664984      -0.00438714      -0.01430935
C        0.02778893       2.27181880       2.57886049       0.01508412      -0.03799047      -0.01640164
C        3.40803307       6.85121230      13.35074951      -0.04200440       0.11816401       0.09825835
C        6.84385507       2.30757470      10.54366549      -0.00217355       0.00498513      -0.02586856
C        3.46361093       6.88696820       5.38594451       0.00269079       0.00438074       0.02530988
O        6.78497195       6.21713116      12.23618656      -0.00762776      -0.02855220      -0.04671317
O        3.52249405       1.63773766       3.69342344       0.00834680      -0.02895857       0.04683531
O        0.08667205       7.52104934       4.27138156       0.00767441       0.02891744      -0.04630698
O        3.34914995       2.94165584      11.65822844      -0.00806392       0.02923665       0.04715121
O        0.08667205       2.94165584       3.69342344      -0.07443307      -0.01682493       0.15638707
O        3.34914995       7.52104934      12.23618656      -0.07019548      -0.05783372      -0.05454646
O        6.78497195       1.63773766      11.65822844      -0.00760879      -0.02857451       0.04688304
O        3.52249405       6.21713116       4.27138156       0.00748771      -0.02886768      -0.04708442
O        0.04551777       6.25498442      14.48625990       0.04238360       0.06807870       0.00457121
O        3.39030423       1.67559092       1.44335010      -0.00864930       0.05604468      -0.00531067
O        6.82612623       7.48319608       6.52145490      -0.00860823      -0.05599412       0.00576144
O        3.48133977       2.90380258       9.40815510       0.04950032      -0.16888702      -0.12055575
O        6.82612623       2.90380258       1.44335010      -0.09679826      -0.05990856      -0.06224244
O        3.48133977       7.48319608      14.48625990       0.00860508      -0.05593318       0.00551487
O        0.04551777       1.67559092       9.40815510       0.00789001       0.05634400      -0.00531110
O        3.39030423       6.25498442       6.52145490      -0.00820406       0.05673587       0.00525415
O        6.83016676       8.18605971      13.31242287       0.00310713      -0.02258022       0.00691021
O        3.47729924       3.60666621       2.61718713      -0.00275003      -0.02235765      -0.00697242
O        0.04147724       5.55212079       5.34761787      -0.02562177       0.02809260      -0.02476797
O        3.39434476       0.97272729      10.58199213       0.01949591       0.01793569      -0.01472881
O        0.04147724       0.97272729       2.61718713      -0.01991282       0.02260931      -0.00220880
O        3.39434476       5.55212079      13.31242287       0.00295802       0.02169335       0.00666685
O        6.83016676       3.60666621      10.58199213       0.00929322      -0.02879392      -0.01107285
O        3.47729924       8.18605971       5.34761787       0.01094681      -0.01479701      -0.08480679
O        6.21361537       7.67494444      10.16449299      -0.00858312       0.00871339       0.02121453
O        4.09385063       3.09555094       5.76511701       0.00396952      -0.00486428      -0.01994929
O        0.65802863       6.06323606       2.19968799       0.00443033       0.00457440       0.01973420
O        2.77779337       1.48384256      13.72992201      -0.00414242       0.00456629      -0.02023741
O        0.65802863       1.48384256       5.76511701       0.00395941       0.00047047      -0.00852816
O        2.77779337       6.06323606      10.16449299      -0.00354838       0.00461575       0.01967056
O        6.21361537       3.09555094      13.72992201      -0.02701160      -0.07126536      -0.05717101
O        4.09385063       7.67494444       2.19968799       0.14072557      -0.07630273       0.07243206
O        0.61339730       8.33808641       9.80348023       0.00165493       0.07987070      -0.04260635
O        2.82242470       3.75869291       6.12612977      -0.00378686       0.02047074      -0.01166395
O        6.25824670       5.40009409       1.83867523      -0.00336747      -0.02103662       0.01118988
O        4.04921930       0.82070059      14.09093477       0.00366761      -0.02031520      -0.01146586
O        6.25824670       0.82070059       6.12612977       0.02590842      -0.06860749      -0.06807603
O        4.04921930       5.40009409       9.80348023       0.00380681      -0.02099412       0.01081468
O        0.61339730       3.75869291      14.09093477       0.00388805       0.02045558      -0.01163709
O        2.82242470       8.33808641       1.83867523      -0.04270926      -0.04774529      -0.13994383
O        0.58759428       4.75437213       8.38337143      -0.02310591      -0.06508053      -0.00501367
O        2.84822772       0.17497863       7.54623857      -0.00093960      -0.06545858      -0.02266612
O        6.28404972       8.98380837       0.41856643      -0.08920266      -0.01483128      -0.09225200
O        4.02341628       4.40441487      15.51104357      -0.02315357       0.06506158       0.00496637
O        6.28404972       4.40441487       7.54623857       0.02298176       0.06483047       0.00455158
O        4.02341628       8.98380837       8.38337143      -0.02325639       0.06515172      -0.00435630
O        0.58759428       0.17497863      15.51104357      -0.01684120      -0.07436682       0.01540318
O        2.84822772       4.75437213       0.41856643       0.02303957      -0.06532121      -0.00416415
4
Lattice="0.0 0.0 -3.92804371 0.0 -3.32612002 0.0 -4.6853228 1.66306001 0.0" Properties=species:S:1:pos:R:3:forces:R:3 energy=-19.731507102681693 pbc="T T T"
Si      -3.65813053      -0.82912549       0.00000000       0.02236323       0.00337758      -0.03223969
Si      -1.12472031      -0.83393617       0.00000000      -0.00331849      -0.00050777      -0.00037410
Si      -0.93779631      -2.49218550      -1.96402185      -0.01630478      -0.00005850       0.00035190
Si      -3.47120653       0.82912381      -1.96402185       0.00381875      -0.00062802       0.00019850
4
Lattice="0.0 0.0 -3.93312074 0.0 -3.32733978 0.0 -4.68116141 1.66366989 0.0" Properties=species:S:1:pos:R:3:forces:R:3 energy=-19.73305455009808 pbc="T T T"
Si      -3.65467854      -0.82949511       0.00000000       0.00556181       0.00082553      -0.00030486
Si      -1.12483379      -0.83417641       0.00000000       0.01014796      -0.00025658      -0.00012783
Si      -0.93716631      -2.49316503      -1.96656037       0.00890022       0.00325427       0.00731271
Si      -3.46701106       0.82949345      -1.96656037      -0.13633002      -0.01133989      -0.09716002
4
Lattice="0.0 0.0 -3.93804056 0.0 -3.32852176 0.0 -4.67712888 1.66426088 0.0" Properties=species:S:1:pos:R:3:forces:R:3 energy=-19.73450492067975 pbc="T T T"
Si      -3.65133358      -0.82985333       0.00000000       0.05858592      -0.01931680      -0.10960670
Si      -1.12494280      -0.83440920       0.00000000      -0.08152036      -0.09667261      -0.04059054
Si      -0.93655568      -2.49411421      -1.96902028       0.00450815       0.00150561      -0.00016750
Si      -3.46294646       0.82985168      -1.96902028      -0.02249124      -0.00168784      -0.00030226
4
Lattice="0.0 0.0 -3.94035878 0.0 -3.30410873 0.0 -4.6665403 1.65205436 0.0" Properties=species:S:1:pos:R:3:forces:R:3 energy=-19.738997763305765 pbc="T T T"
Si      -3.64377051      -0.82371631       0.00000000      -0.00653966       0.00022841       0.00042499
Si      -1.12343696      -0.82833971       0.00000000       0.03403321       0.07898139      -0.00891160
Si      -0.93373220      -2.47577067      -1.97017939      -0.14013586      -0.06401901      -0.01875913
Si      -3.45406575       0.82371465      -1.97017939      -0.04558246      -0.01521945      -0.00534427
4
Lattice="0.0 0.0 -3.96366587 0.0 -3.28519398 0.0 -4.6892576 1.64259699 0.0" Properties=species:S:1:pos:R:3:forces:R:3 energy=-19.744858515948284 pbc="T T T"
Si      -3.66435020      -0.81886413       0.00000000      -0.00093300      -0.00424821       0.01253816
Si      -1.12816996      -0.82373448       0.00000000       0.01555790       0.00502247       0.00372852
Si      -0.93543636      -2.46146112      -1.98183293       0.11147270       0.07710183       0.05718587
Si      -3.47161660       0.81886251      -1.98183293       0.01405639       0.03185098       0.00390709
4
Lattice="0.0 0.0 -3.991753 0.0 -3.2624 0.0 -4.716634 1.6312 0.0" Properties=species:S:1:pos:R:3:forces:R:3 energy=-19.7449528380862 pbc="T T T"
Si      -3.68916717      -0.81301781       0.00000000       0.07063322      -0.00330599      -0.00034703
Si      -1.13386938      -0.81818382       0.00000000      -0.01170341       0.01470377       0.00708166
Si      -0.93747346      -2.44421781      -1.99587650      -0.04757672      -0.00201668      -0.01037640
Si      -3.49277124       0.81301618      -1.99587650       0.00008813       0.03124902      -0.00193467
4
Lattice="0.0 0.0 -3.93427654 0.0 -3.33376306 0.0 -4.67731113 1.66688153 0.0" Properties=species:S:1:pos:R:3:forces:R:3 energy=-19.732557274272885 pbc="T T T"
Si      -3.65065902      -0.83117714       0.00000000      -0.00738496       0.00043060      -0.00012104
Si      -1.12520404      -0.83570604       0.00000000       0.01244096       0.01226448      -0.00531566
Si      -0.93740902      -2.49805867      -1.96713827       0.00825612       0.00008436       0.00015737
Si      -3.46286399       0.83117549      -1.96713827      -0.02198674      -0.01839285       0.02944573
4
Lattice="0.0 0.0 -3.97631305 0.0 -3.34540137 0.0 -4.67438467 1.67270069 0.0" Properties=species:S:1:pos:R:3:forces:R:3 energy=-19.772382715165794 pbc="T T T"
Si      -3.67628472      -0.81473242       0.00000000       0.09227489      -0.13592405      -0.00022136
Si      -1.12336229      -0.85796827       0.00000000      -0.02336491       0.13563384       0.00005563
Si      -0.90891269      -2.48743311      -1.98815652      -0.09263869      -0.12721653       0.00562082
Si      -3.46183512       0.81473241      -1.98815652       0.01925062       0.21458848      -0.01596567
4
Lattice="0.0 0.0 -3.99375215 0.0 -3.32103866 0.0 -4.63189599 1.66051933 0.0" Properties=species:S:1:pos:R:3:forces:R:3 energy=-19.758061899956676 pbc="T T T"
Si      -3.67766099      -0.82360973       0.00000000       0.41244993      -0.03636919      -0.02155277
Si      -1.09080192      -0.83690960       0.00000000      -0.31052966       0.04431243      -0.03045368
Si      -0.86585843      -2.48412906      -1.99687608      -0.42775532      -0.04217351      -0.00028772
Si      -3.45271750       0.82360973      -1.99687608       0.29403422       0.04222831      -0.00039214
4
Lattice="0.0 0.0 -4.00268685 0.0 -3.30855673 0.0 -4.61012744 1.65427837 0.0" Properties=species:S:1:pos:R:3:forces:R:3 energy=-19.731052495723812 pbc="T T T"
Si      -3.67820258      -0.82810225       0.00000000       0.57781169       0.00741261      -0.00000249
Si      -1.07422502      -0.82617611       0.00000000      -0.41321463      -0.00834242       0.00003818
Si      -0.84396363      -2.48238062      -2.00134342      -0.58941596      -0.00080556      -0.00407404
Si      -3.44794119       0.82810226      -2.00134342       0.43428712      -0.00795786      -0.00113577
4
Lattice="0.0 0.0 -3.9819661 0.0 -3.32433427 0.0 -4.60586701 1.66216714 0.0" Properties=species:S:1:pos:R:3:forces:R:3 energy=-19.72746319500469 pbc="T T T"
Si      -3.67335350      -0.82385816       0.00000000       0.58497479      -0.05227390       0.01445482
Si      -1.07281922      -0.83830896       0.00000000      -0.42664358       0.04733739      -0.00019388
Si      -0.84463356      -2.48602533      -1.99098305      -0.74178731      -0.11214406       0.07886689
Si      -3.44516784       0.82385818      -1.99098305       0.38255996       0.05084402       0.07502823
4
Lattice="0.0 0.0 -3.93243164 0.0 -3.36205162 0.0 -4.59568215 1.68102581 0.0" Properties=species:S:1:pos:R:3:forces:R:3 energy=-19.699093985714338 pbc="T T T"
Si      -3.66176458      -0.81361943       0.00000000       0.67600711      -0.18958127       0.00048489
Si      -1.06945949      -0.86740638       0.00000000      -0.52497465       0.18965586      -0.00043192
Si      -0.84623195      -2.49464524      -1.96621582      -0.65599576      -0.21514013       0.07300968
Si      -3.43853704       0.81361943      -1.96621582       0.54849776       0.33967164       0.00384465
4
Lattice="0.0 0.0 -3.82737306 0.0 -3.44204705 0.0 -4.57408089 1.72102353 0.0" Properties=species:S:1:pos:R:3:forces:R:3 energy=-19.53924194834166 pbc="T T T"
Si      -3.63720177      -0.79143784       0.00000000       0.88372596      -0.60624558       0.05392295
Si      -1.06233843      -0.92958569       0.00000000      -0.85987862       0.53941153       0.04070857
Si      -0.84960566      -2.51246134      -1.91368653      -0.92616074      -0.52645184       0.01948362
Si      -3.42446900       0.79143783      -1.91368653       0.78400360       0.57373406      -0.01381866
4
Lattice="0.0 0.0 -3.80911629 0.0 -3.47706909 0.0 -4.60114971 1.73853455 0.0" Properties=species:S:1:pos:R:3:forces:R:3 energy=-19.53574939054481 pbc="T T T"
Si      -3.64240640      -0.78473200       0.00000000       0.70119752      -0.71821385       0.02657619
Si      -1.07844319      -0.95380252       0.00000000      -0.59744062       0.84295703       0.04100825
Si      -0.87095338      -2.52326655      -1.90455814      -0.70983092      -0.65191823      -0.00021824
Si      -3.43491658       0.78473202      -1.90455814       0.56865368       0.61615254      -0.04785097
4
Lattice="0.0 0.0 -3.89085609 0.0 -3.32026733 0.0 -4.47995634 1.66013366 0.0" Properties=species:S:1:pos:R:3:forces:R:3 energy=-19.4200854678754 pbc="T T T"
Si      -3.61953404      -0.81542104       0.00000000       1.61667299      -0.16009485      -0.00003430
Si      -1.00607997      -0.84471262       0.00000000      -1.35775142       0.14845320       0.01487101
Si      -0.77494473      -2.47555473      -1.94542805      -1.61749879      -0.16068582       0.00068968
Si      -3.38839881       0.81542105      -1.94542805       1.43946611       0.15942723      -0.01590849
4
Lattice="0.0 0.0 -3.75804404 0.0 -3.57504117 0.0 -4.67687314 1.78752059 0.0" Properties=species:S:1:pos:R:3:forces:R:3 energy=-19.451856741568264 pbc="T T T"
Si      -3.65990910      -0.77062734       0.00000000       0.30744015      -0.85801870       0.00050552
Si      -1.12172464      -1.01689325       0.00000000      -0.36678282       0.86776217      -0.00847243
Si      -0.92772930      -2.55814793      -1.87902202      -0.30685675      -0.85814592      -0.00078810
Si      -3.46591376       0.77062733      -1.87902202       0.34838721       0.85864141       0.00056367
4
Lattice="0.0 0.0 -3.69163802 0.0 -3.70242809 0.0 -4.77533155 1.85121405 0.0" Properties=species:S:1:pos:R:3:forces:R:3 energy=-19.28069550211308 pbc="T T T"
Si      -3.67759729      -0.74440487       0.00000000       0.18031261      -1.04194154      -0.00025435
Si      -1.18105057      -1.10680915       0.00000000      -0.35736154       1.04223913      -0.00039445
Si      -1.00662093      -2.59561892      -1.84581901       0.00951413      -0.84818598       0.04296942
Si      -3.50316766       0.74440490      -1.84581901       0.35661391       1.04195566      -0.00030710
4
Lattice="0.0 0.0 -3.66950268 0.0 -3.7448904 0.0 -4.80815101 1.8724452 0.0" Properties=species:S:1:pos:R:3:forces:R:3 energy=-19.222246045042834 pbc="T T T"
Si      -3.68308536      -0.73504842       0.00000000       0.15070577      -1.13040891      -0.00011732
Si      -1.20107131      -1.13739680       0.00000000      -0.32701661       1.09075764      -0.01836538
Si      -1.03332613      -2.60749362      -1.83475134      -0.15355984      -1.11375444       0.00345907
Si      -3.51534017       0.73504840      -1.83475134       0.37619279       1.12992032      -0.00069611
4
Lattice="0.0 0.0 -3.57027064 0.0 -4.21480136 0.0 -5.11930151 2.10740068 0.0" Properties=species:S:1:pos:R:3:forces:R:3 energy=-18.85213992981807 pbc="T T T"
Si      -3.74933143      -0.78662446       0.00000000      -0.45388370      -0.43243059      -0.00007199
Si      -1.40817543      -1.32077622       0.00000000       0.28142422       0.48786554       0.04404037
Si      -1.27229381      -2.89402514      -1.78513532       0.49890344      -0.44938782      -0.01354344
Si      -3.61344981       0.78662442      -1.78513532      -0.26042605       0.46011422      -0.01946420
4
Lattice="0.0 0.0 -3.52065462 0.0 -4.44975685 0.0 -5.27487676 2.22487842 0.0" Properties=species:S:1:pos:R:3:forces:R:3 energy=-18.501225826873448 pbc="T T T"
Si      -3.77722441      -0.81014594       0.00000000      -0.59131832      -0.13313125       0.17325277
Si      -1.51565930      -1.41473244       0.00000000       0.45892956       0.26305000       0.02769271
Si      -1.39700770      -3.03502436      -1.76032731       0.49697663      -0.20136886       0.12576671
Si      -3.65857281       0.81014593      -1.76032731      -0.41723400       0.17099455      -0.00020681
4
Lattice="0.0 0.0 -3.50411594 0.0 -4.52807534 0.0 -5.32673517 2.26403767 0.0" Properties=species:S:1:pos:R:3:forces:R:3 energy=-18.40360870529045 pbc="T T T"
Si      -3.78567611      -0.81762866       0.00000000      -0.56225912      -0.04179147       0.00016417
Si      -1.55212322      -1.44640901       0.00000000       0.42558114       0.04152595       0.00024362
Si      -1.43942495      -3.08166633      -1.75205797       0.56973641      -0.01932011       0.00933625
Si      -3.67297785       0.81762866      -1.75205797      -0.38662305       0.01855868       0.08513735
4
Lattice="0.0 0.0 -3.65587317 0.0 -4.6494034 0.0 -5.39677154 2.3247017 0.0" Properties=species:S:1:pos:R:3:forces:R:3 energy=-18.160387609735217 pbc="T T T"
Si      -3.86524026      -0.87678196       0.00000000      -0.17406851       0.63823625      -0.05021043
Si      -1.55122464      -1.44791974       0.00000000       0.06006315      -0.55564407       0.01817006
Si      -1.42856088      -3.20148366      -1.82793659       0.09864691       0.66940132       0.09352421
Si      -3.74257650       0.87678196      -1.82793659      -0.09078200      -0.59784046      -0.00226343
4
Lattice="0.0 0.0 -3.3139 0.0 -4.376 0.0 -5.23895 2.188 0.0" Properties=species:S:1:pos:R:3:forces:R:3 energy=-17.86066595818831 pbc="T T T"
Si      -3.68507743      -0.74129440       0.00000000      -1.39109151      -1.74060246       0.00176758
Si      -1.55387257      -1.44670560       0.00000000       1.02640454       1.67564989      -0.09456139
Si      -1.45391340      -2.92929440      -1.65695000       1.51007010      -1.82994990       0.07342907
Si      -3.58511826       0.74129440      -1.65695000      -0.99576545       1.74148093      -0.00060783
4
Lattice="1.6312 -4.716634 0.0 1.6312 4.716634 0.0 0.0 0.0 3.991753" Properties=species:S:1:pos:R:3:forces:R:3 energy=-19.74194378254168 pbc="T T T"
Si       1.63120000      -3.73415914       2.99381475       0.00008211       0.09114704      -0.00041627
Si       1.63120000      -1.17886607       2.99381475      -0.00004854      -0.05453658      -0.00046585
Si       1.63120000       3.73415914       0.99793825      -0.00082106      -0.10269942      -0.01141383
Si       1.63120000       1.17886607       0.99793825       0.00044381       0.05422682       0.00018674
3
Lattice="3.43667156 0.12877608 6.19921074 1.70286892 2.98789761 6.19921074 0.21235777 0.12877608 7.08490151" Properties=species:S:1:pos:R:3:forces:R:3 energy=-23.26094640112135 pbc="T T T"
S        3.08521205       1.87090641      11.23156309      -0.00065263       0.00003456      -0.00063689
S        2.26794331       1.37530569       8.25633634      -0.00041356      -0.00046382      -0.00275974
Ta       0.89250995       0.54122782       3.24913870       0.00614776      -0.01207763      -0.00209162
3
Lattice="3.47131818 0.14986536 6.32559569 1.73758575 3.0088711 6.32559569 0.24713498 0.14986536 7.21125059" Properties=species:S:1:pos:R:3:forces:R:3 energy=-23.260969061979534 pbc="T T T"
S        3.13738103       1.90254226      11.42148173       0.01157663      -0.02469635       0.02113836
S        2.31990256       1.40681435       8.44549146      -0.03020931      -0.00936413       0.00791446
Ta       0.90991387       0.55178175       3.31249679       0.00017295       0.00051072       0.00028254
3
Lattice="3.48350962 0.15701277 6.36918517 1.7495594 3.01637766 6.36918517 0.25892139 0.15701277 7.25495133" Properties=species:S:1:pos:R:3:forces:R:3 energy=-23.26072902492204 pbc="T T T"
S        3.15527717       1.91339467      11.48663174       0.00095013       0.00070182       0.00288708
S        2.33797673       1.41777472       8.51128959      -0.00132326      -0.00058434      -0.00466691
Ta       0.91589891       0.55541114       3.33428506      -0.01332975       0.00257348       0.02649744
3
Lattice="3.46397321 0.14569015 6.29975687 1.73048806 3.00428812 6.29975687 0.24024986 0.14569015 7.18528545" Properties=species:S:1:pos:R:3:forces:R:3 energy=-23.260950553514366 pbc="T T T"
S        3.12659665       1.89600249      11.38222168       0.00276232       0.00162904       0.01064894
S        2.30931805       1.40039579       8.40695905      -0.00130487      -0.00109976      -0.00619462
Ta       0.90639324       0.54964680       3.29968012      -0.00088318      -0.00028426      -0.00341646
3
Lattice="3.43206988 0.12653397 6.18422885 1.69875352 2.98485359 6.18422885 0.20866043 0.12653397 7.06967121" Properties=species:S:1:pos:R:3:forces:R:3 energy=-23.260871003445036 pbc="T T T"
S        3.07904411       1.86716610      11.20910900       0.00066251       0.00068253       0.00269554
S        2.26165857       1.37149455       8.23345705      -0.00075014      -0.00002082      -0.00104023
Ta       0.89047490       0.53999374       3.24173019      -0.00027184      -0.00022083      -0.00179302
3
Lattice="3.42430491 0.12110676 6.15364161 1.69035147 2.98047695 6.15364161 0.1997107 0.12110676 7.03940941" Properties=species:S:1:pos:R:3:forces:R:3 energy=-23.26071378459381 pbc="T T T"
S        3.06652442       1.85957403      11.16353170      -0.00265579      -0.00124581      -0.00989519
S        2.24914224       1.36390451       8.18789197      -0.00849350      -0.00038723       0.00640341
Ta       0.88619973       0.53740123       3.22616663       0.06118347       0.03817812      -0.03197922
3
Lattice="3.47052749 0.14849359 6.31983681 1.73600384 3.0088041 6.31983681 0.24487286 0.14849359 7.20589589" Properties=species:S:1:pos:R:3:forces:R:3 energy=-23.260726081818678 pbc="T T T"
S        3.13521578       1.90122923      11.41359922       0.00001043      -0.01084711      -0.00541194
S        2.31700471       1.40505706       8.43494197       0.02830654       0.04118344       0.05780628
Ta       0.90956826       0.55157217       3.31123863      -0.01392172      -0.00807973      -0.04888772
3
Lattice="3.41175046 0.11455223 6.11135515 1.67873576 2.97237442 6.11135515 0.18890198 0.11455223 6.99664342" Properties=species:S:1:pos:R:3:forces:R:3 energy=-23.260389842804962 pbc="T T T"
S        3.04902508       1.84896223      11.09982620       0.02958632       0.00268737       0.01806046
S        2.23170731       1.35333178       8.12442096      -0.00287217      -0.00230075      -0.01099841
Ta       0.88031359       0.53383181       3.20473844       0.00400740       0.00209315       0.01271228
3
Lattice="3.40634174 0.11112572 6.0911917 1.67319703 2.96916228 6.0911917 0.18325151 0.11112572 6.97654637" Properties=species:S:1:pos:R:3:forces:R:3 energy=-23.260167303783017 pbc="T T T"
S        3.04062976       1.84387122      11.06926346       0.00059255       0.00007797       0.00162394
S        2.22343369       1.34831456       8.09430124       0.00504271      -0.02542790       0.00134376
Ta       0.87761275       0.53219399       3.19490615       0.00139585       0.00106861       0.00452677
3
Lattice="3.39173375 0.09736202 6.02217725 1.65423937 2.96257141 6.02217725 0.16055451 0.09736202 6.90975389" Properties=species:S:1:pos:R:3:forces:R:3 energy=-23.253799289255145 pbc="T T T"
S        3.01207360       1.82655446      10.96530615       0.02838306       0.01177151      -0.00836425
S        2.19450943       1.33077458       7.98900392       0.03591241       0.02209038       0.12996497
Ta       0.86943472       0.52723475       3.16513443       0.06017474       0.07232630      -0.07373540
3
Lattice="3.38686683 0.09362269 6.0019158 1.64867372 2.95998431 6.0019158 0.1543882 0.09362269 6.88984938" Properties=species:S:1:pos:R:3:forces:R:3 energy=-23.252618840486022 pbc="T T T"
S        3.00361049       1.82142233      10.93449662       0.00484953      -0.00044270      -0.00081649
S        2.18580856       1.32549827       7.95732881       0.03754558       0.02802118       0.19822514
Ta       0.86722780       0.52589645       3.15710027      -0.05490339      -0.03302024      -0.19816913
3
Lattice="3.34968504 0.07708505 5.88595772 1.61682106 2.93465869 5.88595772 0.12711686 0.07708505 6.77116899" Properties=species:S:1:pos:R:3:forces:R:3 energy=-23.250045359124627 pbc="T T T"
S        2.95414199       1.79142408      10.75440894       0.12897346       0.05740377       0.18351808
S        2.13864164       1.29689573       7.78561996       0.02225092       0.01323402       0.08204945
Ta       0.85147436       0.51634339       3.09975063      -0.05900198      -0.07234203      -0.22427006
3
Lattice="3.33109414 0.06881624 5.82797869 1.60089472 2.92199589 5.82797869 0.11348119 0.06881624 6.7118288" Properties=species:S:1:pos:R:3:forces:R:3 energy=-23.246514449653358 pbc="T T T"
S        2.92934850       1.77638905      10.66414949       0.06400970       0.03854327       0.23303606
S        2.11512063       1.28263235       7.69999289      -0.00319883       0.02350740       0.02597987
Ta       0.84359442       0.51156491       3.07106409      -0.06123897      -0.03982582      -0.36187644
3
Lattice="3.29530138 0.04846685 5.70205336 1.56630414 2.89966404 5.70205336 0.07992409 0.04846685 6.58528935" Properties=species:S:1:pos:R:3:forces:R:3 energy=-23.24001132841663 pbc="T T T"
S        2.87967248       1.74626497      10.48330635       0.01156975       0.00683149       0.04311218
S        2.06215491       1.25051335       7.50717376       0.01960326       0.01228851       0.07319753
Ta       0.82493767       0.50025125       3.00314510       0.04205359      -0.04748626      -0.13609440
3
Lattice="3.27679166 0.03673012 5.63301609 1.5473402 2.88867634 5.63301609 0.06056968 0.03673012 6.51648411" Properties=species:S:1:pos:R:3:forces:R:3 energy=-23.23385553174754 pbc="T T T"
S        2.85328215       1.73026158      10.38723367      -0.03369487      -0.03042400      -0.11738318
S        2.03279864       1.23271138       7.40030369       0.03419450       0.02019253       0.12399576
Ta       0.81436591       0.49384042       2.96465915       0.01687135       0.02530461      -0.01689130
3
Lattice="3.26979676 0.02941454 5.59762893 1.53761966 2.88585548 5.59762893 0.04850596 0.02941454 6.48248931" Properties=species:S:1:pos:R:3:forces:R:3 energy=-23.230719422917105 pbc="T T T"
S        2.83873488       1.72143995      10.33427505      -0.04366143      -0.02693002      -0.16012939
S        2.01877869       1.22420953       7.34926476       0.03741060       0.02262128       0.13447742
Ta       0.80934785       0.49079741       2.94639113       0.00442437       0.01608570       0.03370314
3
Lattice="3.26614141 0.01433513 5.54279917 1.5225584 2.88958493 5.54279917 0.02363931 0.01433513 6.43348611" Properties=species:S:1:pos:R:3:forces:R:3 energy=-23.22454155867781 pbc="T T T"
S        2.81337112       1.70605908      10.24193953       0.00993727      -0.01127375      -0.07384299
S        1.99992108       1.21277407       7.28061458       0.05706902       0.02553511       0.07318519
Ta       0.80270755       0.48677066       2.92221745       0.02595467      -0.07387939      -0.02751431
3
Lattice="3.40067442 0.04413029 5.86538459 1.6111698 2.99510699 5.86538459 0.07277291 0.04413029 6.77953" Properties=species:S:1:pos:R:3:forces:R:3 energy=-22.763626218893588 pbc="T T T"
S        2.98609603       1.81080137      10.87073609      -0.61304646      -0.37055299      -2.22724885
S        2.10118823       1.27418358       7.64927267       0.58442892       0.35275194       2.11976857
Ta       0.84646392       0.51330500       3.08151039       0.02840866       0.01772899       0.10496644
3
Lattice="3.20141449 0.0 5.38759591 1.47992543 2.83881585 5.38759591 0.0 0.0 6.26699645" Properties=species:S:1:pos:R:3:forces:R:3 energy=-23.084414922129703 pbc="T T T"
S        2.72922117       1.65502964       9.93559576       0.41484101       0.25169861       1.51276794
S        1.95211875       1.18378621       7.10659251      -0.36569958      -0.22132704      -1.32703459
Ta       0.78178377       0.47408225       2.84604544      -0.07086912      -0.01261249      -0.19424170
3
Lattice="-1.6781108 -2.90657382 0.0 1.6781108 -2.90657382 0.0 0.0 -1.93771588 6.07287398" Properties=species:S:1:pos:R:3:forces:R:3 energy=-23.209326610138152 pbc="T T T"
Ta       0.00000000       0.00000002       0.00102929      -0.01399638      -0.00219965      -0.01162914
S        0.00000000      -5.81314764       4.50745486      -0.00037337      -0.00006552       0.28433137
S        0.00000000      -3.87543176       1.57046264       0.07491430      -0.02754324      -0.36515627
3
Lattice="-1.65413687 -2.86504972 0.0 1.65413687 -2.86504972 0.0 0.0 -1.91003314 6.11455273" Properties=species:S:1:pos:R:3:forces:R:3 energy=-23.188295481105264 pbc="T T T"
Ta       0.00000000      -0.00000000      -0.00025736       0.01210360      -0.02168364       0.03138933
S        0.00000000      -5.73009942       4.51672147      -0.00010558      -0.00036218       0.57139492
S        0.00000000      -3.82006631       1.60420317      -0.00253273      -0.00094188      -0.61092736
3
Lattice="-1.583082 -2.741979 0.0 1.583082 -2.741979 0.0 0.0 -1.827986 5.814172" Properties=species:S:1:pos:R:3:forces:R:3 energy=-22.33148207942203 pbc="T T T"
Ta       0.00000000       0.00000000       0.00000000      -0.00045247      -0.02035032      -0.03442447
S        0.00000000      -5.48395800       4.36062900      -0.50123034      -0.35017932      -3.60284647
S        0.00000000      -3.65597200       1.45935717       0.03593348       0.20332191       3.57677757
3
Lattice="6.889292 -1.671874 0.0 6.889292 1.671874 0.0 6.483567 0.0 2.867206" Properties=species:S:1:pos:R:3:forces:R:3 energy=-23.27535125249277 pbc="T T T"
Ta      16.88313339       0.00000000       2.38905639      -0.00578979      -0.01814861      -0.01205715
S        8.58160855       0.00000000       1.21434489      -0.00689673       0.00008054      -0.00086016
S       11.67578084       0.00000000       1.65218732      -0.00223049       0.00892507      -0.01855379
13
Lattice="4.52200428 -0.0 2.6107802 1.50733509 4.26338685 2.6107802 0.0 0.0 5.22156041" Properties=species:S:1:pos:R:3:forces:R:3 energy=-92.60307211934239 pbc="T T T"
Hf       0.00000000       0.00000000       0.00000000       0.00044627       0.00020387      -0.00009631
B        4.54894083       2.13169342       6.10737220      -0.00279270      -0.00703678      -0.00202872
B        3.01466968       2.13169342       6.99318400      -0.01792775       0.01821444       0.00751130
B        4.03751701       0.68516860       5.22156040       0.00831697      -0.01177918      -0.00000232
B        3.52609351       3.57821825       4.33574860       0.00386599       0.01221073      -0.00722560
B        2.50324586       0.68516860       6.10737221      -0.00435863      -0.01255770       0.00778506
B        3.52609351       3.57821825       6.10737220       0.00414493       0.01265405       0.00743550
B        4.54894083       2.13169342       4.33574860       0.01253261       0.00030727      -0.00738835
B        1.99182236       3.57821825       5.22156040      -0.02334793       0.01290767       0.07862808
B        2.50324586       0.68516860       4.33574861       0.02960074      -0.01524943      -0.02045607
B        1.48039854       2.13169342       6.10737221      -0.01029912       0.00302476      -0.00170432
B        3.01466968       2.13169342       3.44993681      -0.02133635       0.00320988      -0.01745084
B        1.48039854       2.13169342       4.33574861      -0.01310879       0.00017850      -0.00788712
13
Lattice="4.49762664 -0.0 2.59670577 1.4992092 4.24040338 2.59670577 0.0 0.0 5.19341154" Properties=species:S:1:pos:R:3:forces:R:3 energy=-92.58614848654246 pbc="T T T"
Hf       0.00000000       0.00000000       0.00000000       0.02069245      -0.12173190       0.08519364
B        4.52433059       2.12020169       6.07439757       0.02557658       0.01123506       0.01854677
B        2.99841792       2.12020169       6.95538360       0.00043098       0.00024185       0.03006533
B        4.01569292       0.68155732       5.19341154      -0.05395765      -0.02203720       0.08538845
B        3.50705558       3.55884606       4.31242551      -0.01944625       0.01964709      -0.03821071
B        2.48978026       0.68155732       6.07439757      -0.08093791      -0.00483748      -0.07216768
B        3.50705558       3.55884606       6.07439757       0.00889782       0.02487472       0.01544656
B        4.52433059       2.12020169       4.31242551       0.00531359      -0.00584290      -0.02119258
B        1.98114292       3.55884606       5.19341154      -0.04892998       0.06344818      -0.06243080
B        2.48978026       0.68155732       4.31242551      -0.00917971      -0.02447815      -0.01501221
B        1.47250525       2.12020169       6.07439757      -0.01937517      -0.00956111       0.01438300
B        2.99841792       2.12020169       3.43143948       0.09733920      -0.01661978      -0.00506579
B        1.47250525       2.12020169       4.31242551      -0.03146804      -0.06318366      -0.06384606
13
Lattice="4.561706 0.0 2.633702 1.520569 4.300818 2.633702 0.0 0.0 5.267404" Properties=species:S:1:pos:R:3:forces:R:3 energy=-92.55577105688799 pbc="T T T"
Hf       0.00000000       0.00000000       0.00000000       0.09447330       0.08816644       0.00585353
B        4.58902014       2.15040900       6.16107440      -0.00450895       0.00019146      -0.00236340
B        3.04113750       2.15040900       7.05474479      -0.01291952      -0.00574854      -0.02101190
B        4.07305915       0.69105114       5.26740400      -0.00357250       0.00450961       0.00030255
B        3.55709849       3.60976686       4.37373360      -0.11722526       0.05637788       0.07768956
B        2.52517651       0.69105114       6.16107440       0.00206120       0.00449875      -0.00258988
B        3.55709849       3.60976686       6.16107440      -0.00129193      -0.00409463      -0.00282915
B        4.58902014       2.15040900       4.37373360      -0.00693501      -0.00819440      -0.00315599
B        2.00921585       3.60976686       5.26740400       0.00299431      -0.00454602      -0.00046287
B        2.52517651       0.69105114       4.37373360       0.00158897       0.00495788       0.00257321
B        1.49325486       2.15040900       6.16107440       0.00519534      -0.00006018      -0.00299228
B        3.04113750       2.15040900       3.48006321       0.00026746      -0.00041910       0.00555221
B        1.49325486       2.15040900       4.37373360       0.04481460       0.04342990       0.05669085
13
Lattice="0.0 3.692201 3.692201 3.692201 0.0 3.692201 3.692201 3.692201 0.0" Properties=species:S:1:pos:R:3:forces:R:3 energy=-92.62320872056952 pbc="T T T"
Hf       0.00000000       0.00000000       0.00000000       0.08121455      -0.08407922      -0.08829265
B        4.94492788       3.69220100       4.94492788       0.00186597       0.03993877      -0.06171166
B        3.69220100       4.94492788       4.94492788       0.00014758       0.02045293       0.02013839
B        3.69220100       2.43947412       4.94492788       0.00049354      -0.02054999       0.02066116
B        4.94492788       3.69220100       2.43947412       0.02463846      -0.01074907      -0.01271621
B        2.43947412       3.69220100       4.94492788      -0.03208844      -0.00516658       0.01339607
B        4.94492788       4.94492788       3.69220100       0.02067433       0.02027516      -0.00037628
B        4.94492788       2.43947412       3.69220100       0.02052205      -0.02028014       0.00038189
B        3.69220100       4.94492788       2.43947412       0.00001631       0.02009785      -0.02054029
B        2.43947412       2.43947412       3.69220100       0.02488417      -0.01861142       0.12188683
B        2.43947412       4.94492788       3.69220100      -0.02026290       0.02046733      -0.00035179
B        3.69220100       2.43947412       2.43947412       0.00011281      -0.02033051      -0.02018533
B        2.43947412       3.69220100       2.43947412      -0.02012658       0.00013118      -0.02071179
13
Lattice="4.49260479 -1e-08 2.5938064 1.49753525 4.23566873 2.5938064 0.0 -0.0 5.18761281" Properties=species:S:1:pos:R:3:forces:R:3 energy=-90.36381662320163 pbc="T T T"
B        4.52519133       2.11783436       6.07102869      -0.00651125       0.00788257      -0.00521386
B        2.99507002       2.11783436       6.95444458       0.00045564      -0.00020287       0.01170556
B        4.01515078       0.67522205       5.18761281       0.00680470      -0.00973328       0.00047718
B        3.50511056       3.56044667       4.30419692       0.00349114       0.00997111      -0.00556785
B        2.48502948       0.67522205       6.07102869      -0.00345069      -0.01006383       0.00600509
B        3.50511056       3.56044667       6.07102869       0.00298240       0.00954801       0.00615846
B        4.52519133       2.11783436       4.30419692       0.00908245       0.00962881      -0.00834182
B        1.97498926       3.56044667       5.18761281      -0.00725290       0.00943200      -0.00003397
B        2.48502948       0.67522205       4.30419692      -0.00325859      -0.00926709      -0.00623238
B        1.46494871       2.11783436       6.07102869       0.04295783       0.02659219      -0.07222973
B        2.99507002       2.11783436       3.42078103       0.00838776      -0.06472143      -0.05800931
B        1.46494871       2.11783436       4.30419692      -0.00996427      -0.00031021      -0.00620555
W        0.00000000       0.00000000       0.00000000      -0.00005613      -0.00006799      -0.00049217
13
Lattice="4.48869682 -1e-08 2.59155014 1.4962326 4.23198427 2.59155014 0.0 -0.0 5.18310028" Properties=species:S:1:pos:R:3:forces:R:3 energy=-90.36164083186739 pbc="T T T"
B        4.51904285       2.11599213       6.06447052       0.12429597       0.00025053       0.07186240
B        2.99246471       2.11599213       6.94584076      -0.00005178      -0.00045638       0.14334829
B        4.01018336       0.67672035       5.18310028       0.08300753      -0.11695774      -0.00033924
B        3.50132420       3.55526391       4.30173004       0.16293752       0.16412771      -0.11032956
B        2.48360522       0.67672035       6.06447052      -0.04102489      -0.11728232       0.07155786
B        3.50132420       3.55526391       6.06447052       0.04178182       0.11693851       0.07176845
B        4.51904285       2.11599213       4.30173004       0.13787573      -0.02731115      -0.05370793
B        1.97474606       3.55526391       5.18310028      -0.08567215       0.09347057      -0.01426151
B        2.48360522       0.67672035       4.30173004      -0.02003474      -0.10145536      -0.07348240
B        1.46588657       2.11599213       6.06447052      -0.12412182       0.00046581       0.07167845
B        2.99246471       2.11599213       3.42035980      -0.00020972       0.00020473      -0.14274563
B        1.46588657       2.11599213       4.30173004      -0.23401338      -0.02359264      -0.00058527
W        0.00000000       0.00000000       0.00000000      -0.05907415      -0.04900819      -0.02254865
13
Lattice="4.4957224 -1e-08 2.59560636 1.49857446 4.23860805 2.59560636 0.0 0.0 5.19121272" Properties=species:S:1:pos:R:3:forces:R:3 energy=-90.3619768762339 pbc="T T T"
B        4.53009284       2.11930402       6.07625853      -0.08239857      -0.00019266      -0.04805393
B        2.99714843       2.11930402       6.96130433       0.00007337      -0.00006130      -0.09469720
B        4.01911126       0.67403006       5.19121272      -0.04699124       0.07680829       0.01717028
B        3.50813001       3.56457798       4.30616691      -0.02795221      -0.07767887       0.04774816
B        2.48616685       0.67403006       6.07625853       0.01032177       0.08559553      -0.07192265
B        3.50813001       3.56457798       6.07625853      -0.02760288      -0.07734196      -0.04729219
B        4.53009284       2.11930402       4.30616691      -0.08203254      -0.00026084       0.04773477
B        1.97518560       3.56457798       5.19121272       0.05537434      -0.07795872      -0.00013781
B        2.48616685       0.67403006       4.30616691       0.02712257       0.07746046       0.04735805
B        1.46420402       2.11930402       6.07625853       0.10443589      -0.01110536      -0.05316977
B        2.99714843       2.11930402       3.42112111      -0.00047661       0.00008273       0.09531447
B        1.46420402       2.11930402       4.30616691       0.11683338       0.08425691      -0.08542713
W        0.00000000       0.00000000       0.00000000       0.05802592       0.02588979       0.05224698
13
Lattice="4.45376283 -1e-08 2.57138099 1.48458793 4.19904818 2.57138099 -0.0 0.0 5.14276199" Properties=species:S:1:pos:R:3:forces:R:3 energy=-90.29997990459208 pbc="T T T"
B        4.49269568       2.09952408       6.02236678      -0.35561719      -0.00489097      -0.20006574
B        2.96917538       2.09952409       6.90197157       0.00025000       0.00041501      -0.41902966
B        3.98485547       0.66313526       5.14276198      -0.24192900       0.34228700      -0.00049268
B        3.47701559       3.53591290       4.26315719      -0.17829389      -0.33103632       0.15487880
B        2.46133517       0.66313527       6.02236678       0.10415977       0.34053568      -0.20823489
B        3.47701559       3.53591290       6.02236678      -0.12066542      -0.34239293      -0.20923841
B        4.49269568       2.09952408       4.26315719      -0.37152815       0.02280112       0.22180055
B        1.95349529       3.53591291       5.14276198       0.23700131      -0.34846667      -0.00601872
B        2.46133517       0.66313527       4.26315719       0.03204924       0.32098213       0.32906251
B        1.44565508       2.09952409       6.02236678       0.35358043       0.13179753      -0.22837031
B        2.96917538       2.09952409       3.38355240       0.08138041      -0.00647401       0.50313817
B        1.44565508       2.09952409       4.26315719       0.36301421      -0.00032603       0.20995533
W        0.00000000       0.00000000       0.00000000      -0.07579828       0.05397162      -0.14572391
13
Lattice="4.561706 0.0 2.633702 1.520569 4.300818 2.633702 0.0 0.0 5.267404" Properties=species:S:1:pos:R:3:forces:R:3 energy=-90.20906910990978 pbc="T T T"
B        4.58902014       2.15040900       6.16107440       0.22831479      -0.02660676       0.24378378
B        3.04113750       2.15040900       7.05474479       0.01266373      -0.07656859       0.28126868
B        4.07305915       0.69105114       5.26740400       0.17337018      -0.23062398      -0.01290450
B        3.55709849       3.60976686       4.37373360       0.05022146       0.31407308      -0.16933046
B        2.52517651       0.69105114       6.16107440      -0.10111933      -0.22709024       0.17902945
B        3.55709849       3.60976686       6.16107440       0.08888585       0.25237238       0.14337691
B        4.58902014       2.15040900       4.37373360       0.26081413       0.00020650      -0.15015533
B        2.00921585       3.60976686       5.26740400      -0.14444998       0.24088103      -0.00488773
B        2.52517651       0.69105114       4.37373360      -0.08690580      -0.24596465      -0.15017286
B        1.49325486       2.15040900       6.16107440      -0.26030517      -0.00002035       0.14985023
B        3.04113750       2.15040900       3.48006321       0.01001726      -0.02434304      -0.29930452
B        1.49325486       2.15040900       4.37373360      -0.28135422       0.00407528      -0.14841711
W        0.00000000       0.00000000       0.00000000      -0.02674867      -0.03719717       0.10215271
13
Lattice="0.0 3.668196 3.668196 3.668196 0.0 3.668196 3.668196 3.668196 0.0" Properties=species:S:1:pos:R:3:forces:R:3 energy=-90.43885415104234 pbc="T T T"
B        4.91753587       3.66819600       4.91753587      -0.02384723       0.01662778      -0.01961107
B        3.66819600       4.91753587       4.91753587       0.00033713      -0.02242054      -0.02234128
B        3.66819600       2.41885613       4.91753587      -0.00717710       0.01708065      -0.02879821
B        4.91753587       3.66819600       2.41885613      -0.00795921      -0.01477022       0.04606404
B        2.41885613       3.66819600       4.91753587       0.02214983       0.00049849      -0.02215082
B        4.91753587       4.91753587       3.66819600      -0.02187261      -0.02217713      -0.00042946
B        4.91753587       2.41885613       3.66819600      -0.02257695       0.02219673      -0.00019576
B        3.66819600       4.91753587       2.41885613      -0.00611992      -0.01983138       0.01244351
B        2.41885613       2.41885613       3.66819600       0.02255287       0.02224504      -0.00022392
B        2.41885613       4.91753587       3.66819600       0.03905927      -0.01208045      -0.01268772
B        3.66819600       2.41885613       2.41885613      -0.12066615       0.00404745       0.00886327
B        2.41885613       3.66819600       2.41885613       0.02181739       0.00029913       0.02186357
W        0.00000000       0.00000000       0.00000000       0.00014501      -0.00041660       0.00023541
4
Lattice="-3.4578303 0.0 0.0 0.0 -2.2453125 -2.97171196 0.0 -2.2453125 2.97171196" Properties=species:S:1:pos:R:3:forces:R:3 energy=-30.123533707025572 pbc="T T T"
Lu       0.00000000      -2.24531250      -2.96545680      -0.00224505       0.00890585       0.00432312
Ni      -1.72891515      -2.24531250       0.66762279       0.00013558       0.00026034      -0.04240526
C       -1.72891515      -2.93411458      -1.18387688       0.03348144       0.00583863       0.01032746
C       -1.72891515      -1.55651042      -1.18387688       0.00358953       0.00017067      -0.01784349
4
Lattice="-3.46079444 0.0 0.0 0.0 -2.24689148 -2.97425158 0.0 -2.24689148 2.97425158" Properties=species:S:1:pos:R:3:forces:R:3 energy=-30.122987923022542 pbc="T T T"
Lu       0.00000000      -2.24689148      -2.96889989      -0.05092010       0.00531556      -0.02815202
Ni      -1.73039722      -2.24689148       0.66550551       0.00014340      -0.00036931       0.04348543
C       -1.73039722      -2.93705300      -1.18309030      -0.00387561       0.01651053      -0.04607066
C       -1.73039722      -1.55672996      -1.18309030       0.00025563      -0.05042299      -0.03839390
4
Lattice="-3.45686044 0.0 0.0 0.0 -2.24655361 -2.96688092 0.0 -2.24655361 2.96688092" Properties=species:S:1:pos:R:3:forces:R:3 energy=-30.120663503208544 pbc="T T T"
Lu       0.00000000       0.00000000       0.00728476      -0.00036387       0.00028926       0.01599527
Ni      -1.72843022      -2.24655361       0.66206375       0.00047891      -0.00582197       0.06436919
C       -1.72843022      -2.94134875      -1.18023532       0.00040456       0.37548986      -0.04406462
C       -1.72843022      -1.55175847      -1.18023532       0.00767576      -0.39353636      -0.04030126
4
Lattice="-3.46440272 0.0 0.0 0.0 -2.24720136 -2.98101199 0.0 -2.24720136 2.98101199" Properties=species:S:1:pos:R:3:forces:R:3 energy=-30.12174355065121 pbc="T T T"
Lu       0.00000000       0.00000000       0.00358795       0.00039794       0.00008746       0.08404396
Ni      -1.73220136      -2.24720136       0.66865369       0.01403566      -0.00901001      -0.01683797
C       -1.73220136      -2.93311423      -1.18570926      -0.07651632      -0.18953101       0.04754200
C       -1.73220136      -1.56128849      -1.18570926      -0.00046189       0.24388406      -0.02425993
4
Lattice="-3.46568471 0.0 0.0 0.0 -2.24756796 -2.97057195 0.0 -2.24756796 2.97057195" Properties=species:S:1:pos:R:3:forces:R:3 energy=-30.119837982654623 pbc="T T T"
Lu       0.00000000       0.00000000       0.00531364       0.00021784      -0.00044044      -0.04394955
Ni      -1.73284236      -2.24756796       0.65963665       0.00162874      -0.00481731       0.49382970
C       -1.73284236      -2.93310977      -1.17908815       0.00002727      -0.37304680      -0.22020990
C       -1.73284236      -1.56202615      -1.17908815      -0.01092380       0.36976881      -0.21244970
4
Lattice="-3.4626881 0.0 0.0 0.0 -2.24671105 -2.9949753 0.0 -2.24671105 2.9949753" Properties=species:S:1:pos:R:3:forces:R:3 energy=-30.118484711792338 pbc="T T T"
Lu       0.00000000       0.00000000       0.00129425      -0.00045702      -0.00012197       0.08512893
Ni      -1.73134405      -2.24671105       0.68065893       0.00045827       0.00004236      -0.29358147
C       -1.73134405      -2.93312041      -1.19454452       0.00008158      -0.07037202       0.11843239
C       -1.73134405      -1.56030169      -1.19454452       0.00505463       0.08786714       0.09535311
4
Lattice="-3.50130723 0.0 0.0 0.0 -2.26209877 -3.00358528 0.0 -2.26209877 3.00358528" Properties=species:S:1:pos:R:3:forces:R:3 energy=-30.047867143887494 pbc="T T T"
Lu       0.00000000       0.00000000       0.00446903       0.14456586      -0.01264378      -0.02371204
Ni      -1.75065362      -2.26209877       0.66256004      -0.00054972      -0.00050688       0.91492675
C       -1.75065362      -2.92890251      -1.18953637       0.00114819      -2.09188364      -0.39908319
C       -1.75065362      -1.59529503      -1.18953637      -0.09952312       2.12357921      -0.27935163
4
Lattice="-3.4471 0.0 0.0 0.0 -2.2405 -2.9915 0.0 -2.2405 2.9915" Properties=species:S:1:pos:R:3:forces:R:3 energy=-30.110097695508927 pbc="T T T"
Lu       0.00000000       0.00000000       0.00000000       0.00018119       0.00006842       0.09180285
Ni      -1.72355000      -2.24050000       0.68804500       0.01549741      -0.03203890      -0.60050881
C       -1.72355000      -2.93505500      -1.19660000      -0.00013356       0.70676026       0.24594635
C       -1.72355000      -1.54594500      -1.19660000       0.00043546      -0.70688964       0.24598972
4
Lattice="-3.46805517 0.0 0.0 0.0 -2.24867847 -2.97956241 0.0 -2.24867847 2.97956241" Properties=species:S:1:pos:R:3:forces:R:3 energy=-30.127821463983658 pbc="T T T"
Lu       0.00000000      -2.24867847      -2.97366532       0.00049024      -0.00000379      -0.02267938
Ni      -1.73402758      -2.24867847       0.66917295       0.00615926      -0.00274880       0.12333644
C       -1.73402758      -2.93731035      -1.18671031       0.00026820      -0.01171442      -0.05440064
C       -1.73402758      -1.56004659      -1.18671031      -0.10653310       0.10349119      -0.02263561
4
Lattice="-3.46010563 0.0 0.0 0.0 -2.24834087 -2.96500696 0.0 -2.24834087 2.96500696" Properties=species:S:1:pos:R:3:forces:R:3 energy=-30.125150689146967 pbc="T T T"
Lu       0.00000000       0.00000000       0.00668639      -0.03101010      -0.08154922       0.11785866
Ni      -1.73005282      -2.24834087       0.65813388       0.00043809      -0.00023779       0.26214754
C       -1.73005282      -2.94416905      -1.17743712      -0.00036883       0.44638561      -0.13093461
C       -1.73005282      -1.55251269      -1.17743712      -0.00411338      -0.43045751      -0.11555109
4
Lattice="-3.46710775 0.0 0.0 0.0 -2.24546506 -2.98607761 0.0 -2.24546506 2.98607761" Properties=species:S:1:pos:R:3:forces:R:3 energy=-30.12619044970243 pbc="T T T"
Lu       0.00000000       0.00000000       0.00270563       0.00017972       0.00046307       0.07719798
Ni      -1.73355387      -2.24546506       0.67259678       0.00034113       0.00019948      -0.11604592
C       -1.73355387      -2.92860366      -1.18868332      -0.00007916      -0.37489729       0.01931003
C       -1.73355387      -1.56232646      -1.18868332       0.02242618       0.40027939       0.00781245
4
Lattice="-3.50481741 0.0 0.0 0.0 -2.25505868 -3.00265911 0.0 -2.25505868 3.00265911" Properties=species:S:1:pos:R:3:forces:R:3 energy=-30.021225779334113 pbc="T T T"
Lu       0.00000000       0.00000000       0.00435812      -0.00036072       0.00028664      -0.11804567
Ni      -1.75240870      -2.25505868       0.66334823       0.02539243       0.02088462       0.90681367
C       -1.75240870      -2.91370003      -1.18961102      -0.46238572      -2.92355516      -0.69083105
C       -1.75240870      -1.59641733      -1.18961102      -0.12654078       2.91839375      -0.30930506
4
Lattice="2.248678 -2.979562 0.0 2.248678 2.979562 0.0 0.0 0.0 3.468055" Properties=species:S:1:pos:R:3:forces:R:3 energy=-30.134263605484932 pbc="T T T"
Lu       2.24867800       2.97366247       0.00000000      -0.00013813      -0.01937591      -0.00019614
Ni       2.24867800      -0.66917387       1.73402750      -0.01392115       0.00210593      -0.02666329
C        2.93731090       1.18670889       1.73402750       0.00752491       0.00205850       0.00232500
C        1.56004510       1.18670889       1.73402750      -0.05559892      -0.14473580      -0.01040302
84
Lattice="8.576111 0.0 0.0 0.0 -12.128452 0.0 0.0 6.064226 -10.503548" Properties=species:S:1:pos:R:3:forces:R:3 energy=-533.545439178115 pbc="T T T"
C        5.30093709      -1.74065117      -7.18014138       3.63609446       3.38882405       1.61080245
C        4.41400427      -7.17772099      -4.40967305       2.61468392      20.07199858      -2.93551418
C        1.70045414       0.80527463      -9.41728157       2.11238426     -10.38790167       0.67334924
C        5.22913789      -1.68441154      -9.27780496       4.67213724       4.34826445      -6.00538573
C        3.59740413      -6.59482758      -3.22420060       0.49875674      -6.96561333     -10.49155061
C        2.59658913       0.17708146      -8.50509044      -3.15099991       7.13068992      -3.20668261
C        0.99055797      -5.03618809      -8.56401534       2.44384113      -2.89115034      -1.36608928
C        1.51874350       0.65454830      -1.29265065       4.71771010      -3.13145984      -0.11269481
C        8.51122414     -10.35411405      -0.64688201       5.12520508      -2.91765765       1.50968313
C        1.32060960      -5.40005984      -6.63895658      -5.98472243       2.66107982       5.70056433
C        2.04734925       0.15028365      -2.97452077     -18.91092766      22.36640628      11.06715816
C        7.46803458      -9.74694555      -0.89007066      -9.12498791       4.35330994      -8.17149018
C        0.63618449      -3.77393764      -0.21479756       1.46190304      -6.35276332       4.06578672
C        5.81984326      -1.37510570      -3.94010143       5.19433574       4.49248719      -0.85907393
C        5.99522473      -7.56335725      -6.34864901       1.78698800      10.39021109      -0.80605403
C        0.70119999      -2.56019493      -0.29846882       0.18523300      12.41058731      -3.09043158
C        6.64393034      -0.69810763      -2.92676113       1.79309186       2.11363651       1.78248385
C        6.88762911      -6.93466681      -7.27831805      -3.06066381      -7.49162408       3.77832856
C        4.93002887      -9.05063293      -5.04782661       1.47913786       6.46059514      -3.81650154
C        0.11558025      -5.64629774      -0.84865517       2.25132161     -19.16278828       2.95697213
C        4.23711340      -2.49644779      -4.60706622       1.07332519       0.92081090       3.04932830
C        4.99467559       1.86397327      -4.95824185      -0.18702208     -12.37617248       2.71320658
C        7.86994544      -6.23338152      -2.02384464       3.03468493       7.44088228       8.65400742
C        3.34221337      -3.03179766      -3.52146152      10.07392549       3.72695158       3.04519299
C        4.94463398      -2.00548805      -3.30395404      -2.69632649      -2.70651961      -1.59276087
C        5.80918316       3.44740939      -6.14074178      -2.79904682     -12.52114262       2.49653943
C        8.50685033      -4.52435528      -1.05885217      -2.55096380      14.87422315      -3.01543408
C        4.60218987      -2.35713433      -1.37752982       5.27339151       2.57612301       5.49291816
C        6.34699108       2.47333702      -6.98909235       2.78925059      -1.80813053      -3.86424562
C        7.47173946      -4.38621828      -2.13692583      13.10163704     -11.99921714       9.21929413
C        0.64573828     -10.83709933      -1.93803065      -4.00851388       3.03162088       2.19070048
C        0.12192657      -4.40248253      -9.20705306      -5.48010468       4.53905975      -1.20603838
C        1.70432196      -5.52140500      -9.86201230      -1.67238295       0.38617601       2.45605549
C        0.71879817       1.34240739      -4.03625091      -4.42292113       4.17717075      -6.26954049
C        7.87753530      -3.71959004      -8.20320797      -2.07437944       1.89956220       1.62428904
C        2.59701793      -6.04992049      -8.76763713     -10.99160585       4.49395079       3.48828554
C        0.98681021       0.05139432     -10.25487650      -0.26790183       0.74269602      -2.35155153
C        4.42591648      -2.38042095      -6.54019172      -4.78766261      -2.90094004      -0.30215554
C        4.22287706      -8.30107640      -4.21202778      -2.87501263     -14.69305026       3.03800031
C        1.32370558      -1.06178533      -9.64511403      10.49835743      21.53179530       5.96218915
C        3.88771406      -2.87481304      -8.22172572      18.39250450      18.96725822       5.46685827
C        3.18680566      -8.44342198      -3.14025625      12.45903959      11.01016674      -9.19968413
C        5.28338179      -6.80967098      -5.51615881      -1.06872482      -0.80325975       3.38397416
C        1.50898388       1.92345727      -9.61006369      -3.35332259      12.84786132      -2.60765380
C        6.01290867      -1.26129837      -5.88087350      -5.07811065      -2.91428612       1.53856358
C        5.62024285      -5.69784972      -6.14415544      12.70532346     -21.34454808      -5.65543875
C        2.03878172       2.89884557      -8.74577924       2.82402579       1.96170700       3.93703968
C        7.05545503      -0.64848407      -6.11716132       9.09192018       4.36853049      -8.28450879
O        4.39990514      -2.42066922      -9.82298111      -2.81262927      -2.93429865       4.10010639
O        2.85422408      -7.39192764      -2.57362135      -1.81706897       1.29566557       1.43176596
O        2.29855212      -0.93477618      -8.61049354      -4.03056268     -15.59726498      -1.21253000
O        5.69022392      -1.11784304     -10.41865833       2.31403370       1.50925400       3.29127394
O        3.53227714      -5.65617030      -2.72782393      -5.13649824      25.95076393       6.96691446
O        3.46296501       0.45706678      -7.86061374       9.11554775       5.45881035       6.69889816
O        0.87317674      -5.31159491      -5.13117226       1.07816031      -0.12791484      -7.17970787
O        2.72545377      -0.55712651      -3.10380894      22.41039547     -25.29409748      -4.00026190
O        6.91503836      -9.58383606      -2.26856680       1.34074891      -0.19203307       7.99269598
O        1.52677074       3.82097784      -9.52168684       0.46032070       9.44263733       0.56505069
O        7.39073809      -0.32547307      -4.30354520       2.53622319       1.51303562       2.97045843
O        6.58905181      -5.82281523      -7.18187447      -4.78179631      13.97274624       1.45593982
O        0.23919631      -1.90419122      -1.27769359       2.40808944       0.35484141       3.68066357
O        6.70802820      -0.41411387      -1.30317520       0.01580667      -0.48561786      -8.25455583
O        7.75126922      -7.21602264      -7.92266870      10.66823025      -5.48501833      -6.88168495
O        5.83167830       1.54879726      -6.20605285      -0.03015172      -9.17743928      -2.03641035
O        7.13766563      -5.43890121      -2.69799386      -1.67392533      -1.33217110      -1.46779825
O        3.62877554      -2.95774133      -1.59950130      -5.66283366      -3.48297346      -0.48182216
O        4.51696048       1.20777551      -3.99563369       2.00868364      -0.52079644      -3.46470336
O        7.79892667      -7.17715701      -2.48833254       1.01430069     -25.13797464      -8.56677351
O        2.48523690      -3.41980503      -4.01957127     -16.13183876      -7.04749060      -4.80480531
O        5.03044655       3.82168735     -10.36395585      -1.09180628      -0.23414650      -7.32996072
O        7.04738491       2.39549662      -8.17290523      -3.99787443      -0.19644489       6.45344574
O        6.93340839      -3.58813582      -2.47023492     -14.16515454      27.91960865      -8.99958003
O        1.54893141       0.60980644      -4.57496738       2.90970561      -2.62433094       3.51854165
O        7.13958668      -3.34338366      -9.58500222      -2.38718914       1.40436830       2.88333808
O        2.29892089      -5.98474219      -6.84712640       6.22528181      -3.64053993      -0.56246908
O        0.24721498       1.89629560      -5.17797607      -1.33759677       1.60055071       4.51894474
O        7.80309466      -3.44651795      -6.57509501       0.16534295      -0.82915583      -8.35924459
O        3.45478340      -6.43602370      -9.25402492      17.69394848      -7.58828914      -4.68408026
O        0.89970265      -1.94206231      -9.85103609     -14.56662630     -34.16281384      -6.42086524
O        3.18119689      -3.55532836      -8.36180104     -24.28930441     -26.08415457      -4.55086425
O        2.64842314      -9.24281431      -2.79425887     -15.56627220     -28.43806659       7.37669316
O        5.19103423      -4.82005301      -5.94765506     -15.59488944      37.44285273       5.93598596
O        2.73969869       2.97752284      -7.55816408      -3.95536033       0.31590026      -6.43654092
O        7.59593012      -0.45635726      -7.50127686       0.53225578      -0.26504897       8.68862932
4
Lattice="0.0 0.0 -4.01251484 -4.25565053 0.0 0.0 2.12782527 5.26973932 -0.0" Properties=species:S:1:pos:R:3:forces:R:3 energy=-17.520087983512198 pbc="T T T"
Lu       0.00000000       1.45380651      -3.00938613       0.00039452       0.06364367      -0.00019174
Lu      -2.12782526       3.81593281      -1.00312871       0.00799843      -0.06296462       0.00598600
Ga      -0.00000002       4.44401633      -3.00938613       0.01166764      -0.01677530       0.02148644
Ga      -2.12782524       0.82572299      -1.00312871       0.07663205       0.02605513      -0.02273522
4
Lattice="0.0 0.0 -4.03203551 -4.25886087 0.0 0.0 2.12943043 5.27801672 0.0" Properties=species:S:1:pos:R:3:forces:R:3 energy=-17.517735371104134 pbc="T T T"
Lu      -0.00000000       1.45253237      -3.02402663      -0.00013326       0.07753395      -0.01736806
Lu      -2.12943044       3.82548435      -1.00800888      -0.05220626       0.05229203      -0.08463811
Ga       0.00000002       4.45347867      -3.02402663       0.00007814      -0.05325686      -0.00017930
Ga      -2.12943046       0.82453805      -1.00800888      -0.01082652       0.06435584      -0.00598572
4
Lattice="0.0 -0.0 -4.03336976 -4.2566586 0.0 0.0 2.1283293 5.28614865 0.0" Properties=species:S:1:pos:R:3:forces:R:3 energy=-17.515810808757607 pbc="T T T"
Lu      -0.00000002       1.45142328      -3.02502732       0.00015934       0.08399088       0.00047238
Lu      -2.12832928       3.83472537      -1.00834244      -0.00038988      -0.04750526      -0.01112491
Ga       0.00000000       4.46522203      -3.02502732       0.00002033      -0.03207570       0.00021406
Ga      -2.12832930       0.82092662      -1.00834244       0.00044421       0.03274308      -0.00007767
4
Lattice="0.0 -0.0 -4.03722974 -4.25028744 0.0 0.0 2.12514372 5.30967438 0.0" Properties=species:S:1:pos:R:3:forces:R:3 energy=-17.506052671854714 pbc="T T T"
Lu       0.00000000       1.44819978      -3.02792230       0.00613061       0.21420893      -0.00751213
Lu      -2.12514372       3.86147460      -1.00930743       0.00321183      -0.19887278      -0.00776316
Ga       0.00000000       4.49921747      -3.02792230      -0.01724745      -0.31937444       0.00281103
Ga      -2.12514372       0.81045691      -1.00930743      -0.00038444       0.31545806       0.00027947
4
Lattice="0.0 -0.0 -4.07421188 -4.29033208 0.0 0.0 2.14516604 5.34315121 0.0" Properties=species:S:1:pos:R:3:forces:R:3 energy=-17.491171566299098 pbc="T T T"
Lu       0.00000000       1.46460594      -3.05565891      -0.00037171       0.06166503      -0.00030354
Lu      -2.14516604       3.87854527      -1.01855297       0.00053715      -0.06738279       0.01336763
Ga       0.00000002       4.52059921      -3.05565891      -0.00409080       0.00524416       0.01252882
Ga      -2.14516606       0.82255200      -1.01855297       0.00933687       0.00350256      -0.00147822
4
Lattice="0.0 0.0 -3.964682 -4.171732 0.0 0.0 2.085866 5.244003 0.0" Properties=species:S:1:pos:R:3:forces:R:3 energy=-17.44272317503972 pbc="T T T"
Lu       0.00000000       1.41588081      -2.97351150       0.02042613       0.44758007       0.00573715
Lu      -2.08586600       3.82812219      -0.99117050       0.00011933      -0.44684467       0.00044614
Ga       0.00000000       4.45740255      -2.97351150      -0.00020862      -0.42840464       0.00014334
Ga      -2.08586600       0.78660045      -0.99117050      -0.00041203       0.42868157       0.00023755
4
Lattice="0.0 0.0 4.01071743 4.23344571 0.0 0.0 -2.11672286 5.30370921 0.0" Properties=species:S:1:pos:R:3:forces:R:3 energy=-17.54186383640746 pbc="T T T"
Lu      -0.00000000       1.46778392       1.00267936      -0.08921489      -0.02021302       0.01835712
Lu       2.11672285       3.83592529       3.00803807       0.10410554      -0.14760384      -0.01658426
Ga       0.00000002       4.46986243       1.00267936       0.00004886       0.02854319       0.00044308
Ga       2.11672283       0.83384678       3.00803807       0.00013280      -0.02840946      -0.00047303
4
Lattice="0.0 0.0 4.02275779 4.24295336 0.0 0.0 -2.12147668 5.31670116 0.0" Properties=species:S:1:pos:R:3:forces:R:3 energy=-17.539811252444316 pbc="T T T"
Lu       0.00000000       1.46695622       1.00568945       0.00891949       0.05649048       0.01282693
Lu       2.12147668       3.84974494       3.01706834      -0.00017675      -0.09207585       0.00025804
Ga       0.00000000       4.48498886       1.00568945       0.00420593      -0.01315083       0.03146130
Ga       2.12147668       0.83171230       3.01706834      -0.01059976       0.07535180      -0.03448549
4
Lattice="0.0 -0.0 4.02649168 4.24538974 0.0 0.0 -2.12269487 5.32096419 0.0" Properties=species:S:1:pos:R:3:forces:R:3 energy=-17.537788155356225 pbc="T T T"
Lu       0.00000002       1.46453968       1.00662292       0.00931030       0.10702989       0.03641520
Lu       2.12269485       3.85642451       3.01986876       0.01146608      -0.12311031       0.00112992
Ga       0.00000002       4.49240275       1.00662292       0.00478707      -0.11265565      -0.01520181
Ga       2.12269485       0.82856144       3.01986876      -0.00030831       0.08844899      -0.00039154
4
Lattice="0.0 0.0 4.03728859 4.25243476 0.0 0.0 -2.12621738 5.33329116 0.0" Properties=species:S:1:pos:R:3:forces:R:3 energy=-17.528017386448916 pbc="T T T"
Lu       0.00000000       1.45754367       1.00932215      -0.10188146       0.12735655       0.00078525
Lu       2.12621738       3.87574749       3.02796644      -0.04031325      -0.18472517       0.05222713
Ga       0.00000002       4.51384959       1.00932215       0.00011017      -0.26252862       0.00006753
Ga       2.12621736       0.81944157       3.02796644      -0.01536114       0.29577281       0.01292645
4
Lattice="0.0 0.0 4.0001 4.209 0.0 0.0 -2.1045 5.29085 0.0" Properties=species:S:1:pos:R:3:forces:R:3 energy=-17.499368036958238 pbc="T T T"
Lu       0.00000000       1.42852950       1.00002500       0.00949277       0.39811768      -0.00351487
Lu       2.10450000       3.86232050       3.00007500       0.01694359      -0.43222264       0.01471968
Ga       0.00000000       4.49722250       1.00002500       0.00324811      -0.43256174      -0.00972083
Ga       2.10450000       0.79362750       3.00007500      -0.08565664       0.49393884      -0.04052885
4
Lattice="2.116723 -5.303709 0.0 2.116723 5.303709 0.0 0.0 0.0 4.010717" Properties=species:S:1:pos:R:3:forces:R:3 energy=-17.532594723878784 pbc="T T T"
Lu       2.11672300      -3.83592875       1.00267925      -0.00015987       0.05694908       0.00043727
Lu       2.11672300       3.83592875       3.00803775       0.00036596      -0.05660334      -0.00029894
Ga       2.11672300      -0.83384913       1.00267925       0.03226147      -0.08064913      -0.06628754
Ga       2.11672300       0.83384913       3.00803775      -0.02630912      -0.03062249      -0.02121754
4
Lattice="-1.87050047 -3.23977998 -0.00026117 -1.8704815 3.23976903 0.0 -0.00045492 -0.00026265 -6.70161226" Properties=species:S:1:pos:R:3:forces:R:3 energy=-22.87468497852976 pbc="T T T"
Li      -0.00022746      -0.00013133      -3.35080613       0.03131241       0.01608626      -0.00288495
Zr       0.00000000       0.00000000       0.00000000      -0.00005423      -0.00027580      -0.00041351
Se      -1.87072625       1.07978172      -1.70127506       0.00075786       0.00068366       0.07172299
Se      -1.87071064      -1.08005532      -5.00059837      -0.01016985      -0.00660161      -0.06886632
4
Lattice="-1.86580461 -3.23189646 -0.00011947 -1.8660021 3.23201048 0.0 -0.00020085 -0.00011596 -6.68865968" Properties=species:S:1:pos:R:3:forces:R:3 energy=-22.873802893000992 pbc="T T T"
Li      -0.00010043      -0.00005798      -3.34432984      -0.00047478       0.00015680      -0.00000056
Zr       0.00000000       0.00000000       0.00000000       0.03873451      -0.06475033       0.02659007
Se      -1.86612177       1.07726772      -1.69856315      -0.01084805       0.01312608      -0.00890565
Se      -1.86588579      -1.07726966      -4.99021600      -0.00061786      -0.00066137      -0.02271837
4
Lattice="-1.87216825 -3.24214965 -0.00020355 -1.8716998 3.24187919 0.0 -0.00035426 -0.00020453 -6.6246826" Properties=species:S:1:pos:R:3:forces:R:3 energy=-22.859533548000915 pbc="T T T"
Li      -0.00017713      -0.00010226      -3.31234130      -0.02178494      -0.00251834       0.00078212
Zr       0.00000000       0.00000000       0.00000000      -0.08396130      -0.03558033      -0.03370435
Se      -1.87206152       1.08041754      -1.68541017       0.03775754       0.00138437      -0.02949713
Se      -1.87216079      -1.08089253      -4.93947598       0.00030262       0.00032350       0.03672404
4
Lattice="-1.87920194 -3.25521514 2.649e-05 -1.879498 3.25538608 -0.0 5.049e-05 2.915e-05 -6.60828054" Properties=species:S:1:pos:R:3:forces:R:3 energy=-22.85595548677271 pbc="T T T"
Li       0.00002524       0.00001458      -3.30414027       0.01784568       0.01906259      -0.00558553
Zr       0.00000000       0.00000000       0.00000000       0.00044714       0.00021737       0.00005307
Se      -1.87945010       1.08515635      -1.69399917       0.00437111      -0.00866116       0.14839040
Se      -1.87919935      -1.08495626      -4.91425488      -0.12246545       0.00422873      -0.12805479
4
Lattice="-1.86111154 -3.22390131 6.743e-05 -1.86142463 3.22408207 -0.0 0.00012181 7.033e-05 -6.63400282" Properties=species:S:1:pos:R:3:forces:R:3 energy=-22.84706107055691 pbc="T T T"
Li       0.00006091       0.00003516      -3.31700141      -0.06241199      -0.04287944       0.02580885
Zr       0.00000000       0.00000000       0.00000000       0.00035850       0.00034334       0.00005997
Se      -1.86137817       1.07472085      -1.72501276      -0.00023289       0.00012461       0.33307220
Se      -1.86103619      -1.07446976      -4.90892263       0.00599884      -0.00483799      -0.33921364
4
Lattice="-1.84733944 -3.20006229 9.861e-05 -1.84766548 3.20025053 -0.0 0.00017611 0.00010168 -6.65358502" Properties=species:S:1:pos:R:3:forces:R:3 energy=-22.826049237323424 pbc="T T T"
Li       0.00008805       0.00005084      -3.32679251      -0.00879879      -0.00660115       0.02488900
Zr       0.00000000       0.00000000       0.00000000      -0.00034645      -0.00009346       0.00034819
Se      -1.84761972       1.06677660      -1.74869541       0.01102408      -0.02543761       0.47445740
Se      -1.84720909      -1.06648668      -4.90479100      -0.00021926      -0.00032721      -0.47042024
4
Lattice="-1.85207602 -3.20828141 0.00010257 -1.85241516 3.20847721 -0.0 0.00018319 0.00010576 -6.67270873" Properties=species:S:1:pos:R:3:forces:R:3 energy=-22.82298426906088 pbc="T T T"
Li       0.00009160       0.00005288      -3.33635437       0.00639441      -0.00815431       0.00686003
Zr       0.00000000       0.00000000       0.00000000      -0.05158384       0.06114012      -0.00099685
Se      -1.85236108       1.06952365      -1.75646803      -0.10401419      -0.12708046       0.47697733
Se      -1.85194691      -1.06922209      -4.91613813      -0.00644308      -0.01098339      -0.56399051
4
Lattice="-1.98148473 -3.43283706 0.00021079 -1.98218169 3.43323945 -0.0 0.00037646 0.00021735 -7.19519031" Properties=species:S:1:pos:R:3:forces:R:3 energy=-21.745254295236922 pbc="T T T"
Li       0.00018823       0.00010867      -3.59759516      -0.01947000       0.00648490      -0.02511156
Zr       0.00000000       0.00000000       0.00000000       0.00091266       0.00208376      -0.02321804
Se      -1.98190039       1.14457558      -1.96904063       0.00060117       0.00147633       1.96183360
Se      -1.98138957      -1.14395584      -5.22593889       0.00003453      -0.00093116      -1.96151121
4
Lattice="-1.729425 -2.995452 0.0 -1.729425 2.995452 0.0 0.0 0.0 -6.177511" Properties=species:S:1:pos:R:3:forces:R:3 energy=-21.42164444912437 pbc="T T T"
Li       0.00000000       0.00000000      -3.08875550       0.10557691       0.07445201       0.04066707
Zr       0.00000000       0.00000000       0.00000000      -0.00061977       0.03355022       0.09505131
Se      -1.72959794       0.99838415      -1.54437775       0.00173924      -0.00056223      -3.03062048
Se      -1.72925206      -0.99838415      -4.63313325      -0.64122148      -0.18954419       3.23596140
4
Lattice="3.75068662 4.487e-05 -0.00010252 -1.87530445 3.24812286 -0.0 -0.00018314 -0.00010574 6.71991209" Properties=species:S:1:pos:R:3:forces:R:3 energy=-22.863792436167472 pbc="T T T"
Li      -0.00009157      -0.00005287       3.35995605       0.00542334       0.00775507       0.03159481
Zr       0.00000000       0.00000000       0.00000000      -0.00028354      -0.00026521       0.00031507
Se       1.87509405       1.08258612       5.03078914       0.00156501       0.06938777       0.01314502
Se       0.00010498       2.16547587       1.68902043      -0.00940839      -0.00546045       0.03189072
4
Lattice="3.76601567 7.659e-05 -0.00017499 -1.88294151 3.26135063 -0.0 -0.00031259 -0.00018048 6.76226057" Properties=species:S:1:pos:R:3:forces:R:3 energy=-22.856930789166046 pbc="T T T"
Li      -0.00015630      -0.00009024       3.38113028       0.00887455       0.00877561      -0.00286205
Zr       0.00000000       0.00000000       0.00000000       0.00041050       0.00027826       0.00006373
Se       1.88271362       1.08698533       5.05615372      -0.00215280      -0.00112911       0.15296037
Se       0.00004795       2.17426141       1.70593186      -0.00839817       0.01942534      -0.14981603
4
Lattice="1.870486 -3.239777 0.0 1.870486 3.239777 0.0 0.0 0.0 6.701612" Properties=species:S:1:pos:R:3:forces:R:3 energy=-22.87481305532595 pbc="T T T"
Li       0.00000000       0.00000000       3.35080600      -0.02171405       0.01781652       0.01247373
Zr       0.00000000       0.00000000       0.00000000       0.00502274       0.00313800      -0.01133226
Se       1.87048600      -1.07992783       5.00042120       0.00021175       0.00045293       0.07191050
Se       1.87048600       1.07992783       1.70119080       0.01959826      -0.00933017      -0.04515910
2
Lattice="-2.48061713 -2.48061713 0.0 -2.48061713 -0.0 -2.48061713 -0.0 -2.48061713 -2.48061713" Properties=species:S:1:pos:R:3:forces:R:3 energy=-16.21772558267861 pbc="T T T"
Mo       0.00000000       0.00000000       0.00000000      -0.00938819      -0.06803308      -0.04102880
P       -2.48061713      -2.48061713      -2.48061713       0.00029788       0.00039210      -0.00008673
2
Lattice="-2.54190355 -2.54190355 0.0 -2.54190355 -0.0 -2.54190355 0.0 -2.54190355 -2.54190355" Properties=species:S:1:pos:R:3:forces:R:3 energy=-16.125553259718313 pbc="T T T"
Mo       0.00000000       0.00000000       0.00000000      -0.01894278      -0.01068841      -0.00345782
P       -2.54190355      -2.54190355      -2.54190355       0.00049370      -0.00006144       0.00004990
2
Lattice="-2.444938 -2.444938 0.0 -2.444938 0.0 -2.444938 0.0 -2.444938 -2.444938" Properties=species:S:1:pos:R:3:forces:R:3 energy=-16.188647491521277 pbc="T T T"
Mo       0.00000000       0.00000000       0.00000000      -0.00031204       0.00032127      -0.00022230
P       -2.44493800      -2.44493800      -2.44493800       0.00020462       0.00020244      -0.00040884
2
Lattice="2.47962339 2.47962339 0.0 2.47962339 0.0 -2.47962339 -0.0 2.47962339 -2.47962339" Properties=species:S:1:pos:R:3:forces:R:3 energy=-16.221610068446417 pbc="T T T"
Mo       0.00000000       0.00000000       0.00000000       0.00028535       0.00023970      -0.00033334
P        2.47962339       2.47962339      -2.47962339       0.05207819       0.07754111       0.04387372
2
Lattice="2.45746764 2.45746764 0.0 2.45746764 0.0 -2.45746764 -0.0 2.45746764 -2.45746764" Properties=species:S:1:pos:R:3:forces:R:3 energy=-16.208184108829123 pbc="T T T"
Mo       0.00000000       0.00000000       0.00000000      -0.00020140      -0.00032475      -0.00032246
P        2.45746764       2.45746764      -2.45746764       0.00046538       0.00013758       0.00012037
2
Lattice="2.495 2.495 0.0 2.495 0.0 -2.495 0.0 2.495 -2.495" Properties=species:S:1:pos:R:3:forces:R:3 energy=-16.21533814844735 pbc="T T T"
Mo       0.00000000       0.00000000       0.00000000      -0.00033377       0.00022162       0.00029914
P        2.49500000       2.49500000      -2.49500000       0.00028038      -0.00004266       0.00041178
