1
Lattice="2.89172723 0.0 -1.02237997 -1.44586362 2.50430924 -1.02237997 0.0 0.0 3.0671399" Properties=species:S:1:pos:R:3:forces:R:3 bandgap=0.07559999999999967 e_per_atom_relaxed=-9.78103403 mp_id=mp-100 energy_per_atom=-9.440054655075073 ef_per_atom_relaxed=-9.78103403 corrected_total_energy=-9.440054655075073 ef_per_atom=0.1828008600000004 task_id=mp-100 calc_id=0 ionic_step=1 energy=-9.440054655075073 pbc="T T T"
Hf       0.00000000       0.00000000       0.00000000      -0.00000000      -0.00000000      -0.00000000
1
Lattice="2.83612034 0.0 -1.00271996 -1.41806017 2.45615226 -1.00271996 0.0 0.0 3.00815989" Properties=species:S:1:pos:R:3:forces:R:3 e_per_atom_relaxed=-9.78103403 mp_id=mp-100 energy_per_atom=-9.44444465637207 ef_per_atom_relaxed=-9.78103403 corrected_total_energy=-9.44444465637207 ef_per_atom=0.2074303999999998 task_id=mp-100 calc_id=1 ionic_step=1 energy=-9.44444465637207 pbc="T T T"
Hf       0.00000000       0.00000000       0.00000000      -0.00000000      -0.00000000      -0.00000000
1
Lattice="2.94755266 0.0 -1.04211724 -1.47377633 2.55265548 -1.04211724 0.0 0.0 3.12635171" Properties=species:S:1:pos:R:3:forces:R:3 e_per_atom_relaxed=-9.78103403 mp_id=mp-100 energy_per_atom=-9.359458923339844 ef_per_atom_relaxed=-9.78103403 corrected_total_energy=-9.359458923339844 ef_per_atom=0.20535092999999982 task_id=mp-100 calc_id=1 ionic_step=0 energy=-9.359458923339844 pbc="T T T"
Hf       0.00000000       0.00000000       0.00000000      -0.00000000      -0.00000000      -0.00000000
1
Lattice="-1.770814 1.770814 1.770814 1.770814 -1.770814 1.770814 1.770814 1.770814 -1.770814" Properties=species:S:1:pos:R:3:forces:R:3 bandgap=0.0 e_per_atom_relaxed=-9.78103403 mp_id=mp-100 energy_per_atom=-9.440054416656494 ef_per_atom_relaxed=-9.78103403 corrected_total_energy=-9.440054416656494 ef_per_atom=0.1805430999999995 task_id=mp-910445 calc_id=0 ionic_step=0 energy=-9.440054416656494 pbc="T T T"
Hf       0.00000000       0.00000000       0.00000000      -0.00000000      -0.00000000      -0.00000000
1
Lattice="-1.770814 1.770814 1.770814 1.770814 -1.770814 1.770814 1.770814 1.770814 -1.770814" Properties=species:S:1:pos:R:3:forces:R:3 bandgap=0.0 e_per_atom_relaxed=-9.78103403 mp_id=mp-100 energy_per_atom=-9.440054655075073 ef_per_atom_relaxed=-9.78103403 corrected_total_energy=-9.440054655075073 ef_per_atom=0.17615073999999886 task_id=mp-1794749 calc_id=0 ionic_step=0 energy=-9.440054655075073 pbc="T T T"
Hf       0.00000000       0.00000000       0.00000000      -0.00000000      -0.00000000      -0.00000000
6
Lattice="1.693339 -2.93295 0.0 1.693339 2.93295 0.0 0.0 0.0 11.787358" Properties=species:S:1:pos:R:3:forces:R:3 bandgap=0.0 e_per_atom_relaxed=-9.212826796666667 mp_id=mp-10000 energy_per_atom=-9.047073364257812 ef_per_atom_relaxed=-9.212826796666667 corrected_total_energy=-9.047073364257812 ef_per_atom=-1.1954756810416662 task_id=mp-909950 calc_id=0 ionic_step=0 energy=-54.282440185546875 pbc="T T T"
Hf       1.69333900      -0.97765196      10.60299963      -0.00000004       0.00002041       0.01235506
Hf       1.69333900       0.97765196       4.70932063      -0.00000003      -0.00001907       0.01234949
Hf       1.69333900      -0.97765196       7.07803737       0.00000001       0.00002008      -0.01234084
Hf       1.69333900       0.97765196       1.18435837      -0.00000009      -0.00002047      -0.01235482
S        0.00000000       0.00000000       8.84051850       0.00000013      -0.00001007      -0.00000760
S        0.00000000       0.00000000       2.94683950       0.00000007       0.00000906      -0.00000117
6
Lattice="3.39554166 0.0 0.0 -1.69777083 2.94062534 0.0 0.0 0.0 11.83131817" Properties=species:S:1:pos:R:3:forces:R:3 e_per_atom_relaxed=-9.212826796666667 mp_id=mp-10000 energy_per_atom=-9.043201446533203 ef_per_atom_relaxed=-9.212826796666667 corrected_total_energy=-9.043201446533203 ef_per_atom=-1.1942352343750002 task_id=mp-10000 calc_id=1 ionic_step=1 energy=-54.25920867919922 pbc="T T T"
S        0.00000000       0.00000000       8.87348863       0.00000000      -0.00000158      -0.00000039
S        0.00000000       0.00000000       2.95782954      -0.00000002      -0.00000032       0.00000047
Hf       1.69777085       0.98020844      10.64217214       0.00000001       0.00000052       0.07368684
Hf      -0.00000002       1.96041690       4.72651305       0.00000001       0.00000037       0.07368767
Hf       1.69777085       0.98020844       7.10480512      -0.00000001       0.00000054      -0.07368615
Hf      -0.00000002       1.96041690       1.18914603      -0.00000000       0.00000045      -0.07368845
6
Lattice="3.3736 0.0 0.0 -1.6868 2.9216233 0.0 0.0 0.0 11.7882" Properties=species:S:1:pos:R:3:forces:R:3 e_per_atom_relaxed=-9.212826796666667 mp_id=mp-10000 energy_per_atom=-9.042364756266275 ef_per_atom_relaxed=-9.212826796666667 corrected_total_energy=-9.042364756266275 ef_per_atom=-1.1944778093750004 task_id=mp-10000 calc_id=1 ionic_step=0 energy=-54.254188537597656 pbc="T T T"
S        0.00000000       0.00000000       8.84115000      -0.00000004       0.00000080      -0.00000276
S        0.00000000       0.00000000       2.94705000      -0.00000000       0.00000131      -0.00000210
Hf       1.68680002       0.97387442      10.60112826       0.00000001      -0.00000055       0.06979617
Hf      -0.00000002       1.94774888       4.70702826      -0.00000001      -0.00000134       0.06979331
Hf       1.68680002       0.97387442       7.08117174      -0.00000001       0.00000002      -0.06978527
Hf      -0.00000002       1.94774888       1.18707174       0.00000000      -0.00000020      -0.06979954
6
Lattice="1.693339 -2.93295 0.0 1.693339 2.93295 0.0 0.0 0.0 11.787358" Properties=species:S:1:pos:R:3:forces:R:3 bandgap=0.0 e_per_atom_relaxed=-9.212826796666667 mp_id=mp-10000 energy_per_atom=-9.047073364257812 ef_per_atom_relaxed=-9.212826796666667 corrected_total_energy=-9.047073364257812 ef_per_atom=-1.1958821377083333 task_id=mp-1434887 calc_id=0 ionic_step=0 energy=-54.282440185546875 pbc="T T T"
Hf       1.69333900      -0.97765196      10.60299963      -0.00000005       0.00002052       0.01235431
Hf       1.69333900       0.97765196       4.70932063      -0.00000002      -0.00001917       0.01234969
Hf       1.69333900      -0.97765196       7.07803737      -0.00000005       0.00002015      -0.01234099
Hf       1.69333900       0.97765196       1.18435837      -0.00000003      -0.00002051      -0.01235446
S        0.00000000       0.00000000       8.84051850       0.00000018      -0.00001017      -0.00000743
S        0.00000000       0.00000000       2.94683950       0.00000002       0.00000919      -0.00000121
16
Lattice="4.57949158 0.0 1.59595068 2.28974579 6.96854132 0.79797534 -0.00351661 0.0 7.37836406" Properties=species:S:1:pos:R:3:forces:R:3 bandgap=0 e_per_atom_relaxed=-9.8374714475 mp_id=mp-10004 energy_per_atom=-9.835664987564087 ef_per_atom_relaxed=-9.8374714475 corrected_total_energy=-9.835664987564087 ef_per_atom=-0.3498465321428572 task_id=mp-10004 calc_id=0 ionic_step=1 energy=-157.3706398010254 pbc="T T T"
P        1.62101142       2.03208456       2.71687137       0.00840497      -0.02554262      -0.02411959
P        2.95496355       2.03208456       6.25744337      -0.00840537      -0.02554212       0.02412041
P        3.91075721       4.93645676       3.51484671       0.00840985       0.02554064      -0.02412557
P        5.24470934       4.93645676       7.05541871      -0.00840776       0.02554698       0.02412705
Mo       2.15185799       0.00000000       5.16312729      -0.01365377      -0.00000011       0.01250203
Mo       5.63568857       4.16738715       1.96403484       0.00828589       0.01630082       0.00289091
Mo       3.34594283       2.80115417       1.16605952       0.00828902      -0.01629952       0.00288813
Mo       0.31172294       0.00000000       3.07501911      -0.00292668       0.00000143      -0.01828050
Mo       3.09979378       4.49636084       5.84186109       0.00901957      -0.02740633      -0.02588010
Mo       1.47618119       4.49636084       3.13245365      -0.00901724      -0.02740627       0.02587594
Mo       0.81004799       2.47218048       5.04388575       0.00901905       0.02740436      -0.02587938
Mo       3.76592698       2.47218048       3.93042899      -0.00901990       0.02740530       0.02587898
Mo       3.09199884       0.00000000       2.44584757      -0.03594680       0.00000029      -0.08163875
Mo       1.06228719       1.29207286       0.37020659       0.05742493      -0.06526066       0.02001085
Mo       3.35203303       5.67646846       1.16818195       0.05742504       0.06525730       0.02001362
Mo       3.93889328       0.00000000       7.38400465      -0.07890034       0.00000012       0.04161575
16
Lattice="4.57837207 0.0 1.59556053 2.28918603 6.96813093 0.79778027 -0.00394131 0.0 7.37778145" Properties=species:S:1:pos:R:3:forces:R:3 e_per_atom_relaxed=-9.8374714475 mp_id=mp-10004 energy_per_atom=-9.835721492767334 ef_per_atom_relaxed=-9.8374714475 corrected_total_energy=-9.835721492767334 ef_per_atom=-0.3496860752678561 task_id=mp-10004 calc_id=1 ionic_step=12 energy=-157.37154388427734 pbc="T T T"
P        1.62070648       2.03131023       2.71594510       0.00255254      -0.00776379      -0.00732946
P        2.95372427       2.03131023       6.25739688      -0.00255619      -0.00776470       0.00732996
P        3.90989252       4.93682070       3.51372537       0.00255002       0.00776555      -0.00732310
P        5.24291031       4.93682070       7.05517715      -0.00255462       0.00776680       0.00732106
Mo       2.14839840       0.00000000       5.16339862       0.00975579      -0.00000319       0.00468107
Mo       5.63645020       4.16878188       1.96430027      -0.01015137       0.00120667      -0.00353708
Mo       3.34726416       2.79934905       1.16652000      -0.01014841      -0.00120972      -0.00353871
Mo       0.30987610       0.00000000       3.07246389       0.01055187      -0.00000246       0.00239586
Mo       3.09893078       4.49558137       5.84073489       0.00736421      -0.02237007      -0.02113597
Mo       1.47549997       4.49558137       3.13260710      -0.00736608      -0.02237018       0.02113352
Mo       0.80974475       2.47254956       5.04295462       0.00736245       0.02237238      -0.02112750
Mo       3.76468601       2.47254956       3.93038736      -0.00736469       0.02237144       0.02112956
Mo       3.09067478       0.00000000       2.44554523      -0.02238038      -0.00000276      -0.08309652
Mo       1.06244239       1.29222309       0.37026068       0.04577955      -0.07111018       0.01594973
Mo       3.35162838       5.67590784       1.16804093       0.04578097       0.07111536       0.01595439
Mo       3.93724331       0.00000000       7.38283594      -0.06917561      -0.00000133       0.05119333
16
Lattice="4.57674241 0.0 1.5949926 2.28837121 6.97104254 0.7974963 -0.00571432 0.0 7.38024692" Properties=species:S:1:pos:R:3:forces:R:3 e_per_atom_relaxed=-9.8374714475 mp_id=mp-10004 energy_per_atom=-9.83537769317627 ef_per_atom_relaxed=-9.8374714475 corrected_total_energy=-9.83537769317627 ef_per_atom=-0.34965751276785717 task_id=mp-10004 calc_id=1 ionic_step=8 energy=-157.3660430908203 pbc="T T T"
P        1.61975298       2.03173161       2.71605905       0.00112427      -0.00340559      -0.00321407
P        2.95127511       2.03173161       6.25918047      -0.00112388      -0.00340697       0.00321458
P        3.90812419       4.93931093       3.51355535       0.00112032       0.00340496      -0.00321783
P        5.23964632       4.93931093       7.05667677      -0.00112463       0.00340695       0.00321771
Mo       2.14437407       0.00000000       5.16339795       0.03800841      -0.00000089       0.01464560
Mo       5.63677959       4.17010560       1.96441506      -0.03844792       0.00131826      -0.01339793
Mo       3.34840839       2.80093694       1.16691876      -0.03844534      -0.00131744      -0.01339628
Mo       0.30657966       0.00000000       3.07299664       0.03887913      -0.00000029       0.01215311
Mo       3.09677554       4.49717848       5.84167511       0.00729448      -0.02215683      -0.02092384
Mo       1.47425256       4.49717848       3.13356441      -0.00728837      -0.02215764       0.02092026
Mo       0.80840433       2.47386406       5.04417881       0.00729418       0.02215681      -0.02092340
Mo       3.76262376       2.47386406       3.93106071      -0.00729601       0.02215773       0.02092192
Mo       3.08906848       0.00000000       2.44449538      -0.03255013       0.00000005      -0.05585095
Mo       1.06257128       1.29176032       0.37030560       0.04638276      -0.04202917       0.01616363
Mo       3.35094249       5.67928222       1.16780190       0.04638268       0.04202923       0.01616535
Mo       3.93355946       0.00000000       7.38512555      -0.06021037       0.00000036       0.02352232
16
Lattice="4.57242234 0.0 1.59348705 2.28621117 6.97272651 0.79674353 -0.00842853 0.0 7.38108432" Properties=species:S:1:pos:R:3:forces:R:3 e_per_atom_relaxed=-9.8374714475 mp_id=mp-10004 energy_per_atom=-9.835085391998291 ef_per_atom_relaxed=-9.8374714475 corrected_total_energy=-9.835085391998291 ef_per_atom=-0.34956728776785617 task_id=mp-10004 calc_id=1 ionic_step=7 energy=-157.36136627197266 pbc="T T T"
P        1.61757466       2.03178717       2.71535874       0.00081528      -0.00248028      -0.00234466
P        2.94641915       2.03178717       6.25921263      -0.00081663      -0.00247849       0.00235188
P        3.90378583       4.94093934       3.51210227       0.00081379       0.00247695      -0.00234667
P        5.23263032       4.94093934       7.05595616      -0.00081110       0.00247397       0.00234589
Mo       2.13768711       0.00000000       5.16050792       0.07705317       0.00000199       0.03527371
Mo       5.63500032       4.16957715       1.96379498      -0.07967387       0.00795563      -0.02776768
Mo       3.34878915       2.80314936       1.16705146      -0.07967533      -0.00795524      -0.02776914
Mo       0.30115074       0.00000000       3.07344759       0.08228801       0.00000429       0.02025673
Mo       3.09217833       4.49802060       5.84096477       0.00903083      -0.02745026      -0.02591618
Mo       1.47181548       4.49802060       3.13360660      -0.00903056      -0.02745032       0.02591909
Mo       0.80596716       2.47470591       5.04422125       0.00903366       0.02744922      -0.02592084
Mo       3.75802665       2.47470591       3.93035013      -0.00902828       0.02744833       0.02591954
Mo       3.08552586       0.00000000       2.44169478      -0.06399877       0.00000337      -0.00662658
Mo       1.06228048       1.29028156       0.37020425       0.05912995       0.01480550       0.02060591
Mo       3.34849165       5.68244495       1.16694778       0.05912933      -0.01480663       0.02060978
Mo       3.92632934       0.00000000       7.38595514      -0.05425895       0.00000153      -0.03459105
16
Lattice="4.57645194 0.0 1.59489137 2.28822597 6.96945771 0.79744568 -0.005338 0.0 7.37869975" Properties=species:S:1:pos:R:3:forces:R:3 e_per_atom_relaxed=-9.8374714475 mp_id=mp-10004 energy_per_atom=-9.83543872833252 ef_per_atom_relaxed=-9.8374714475 corrected_total_energy=-9.83543872833252 ef_per_atom=-0.34951691651785666 task_id=mp-10004 calc_id=1 ionic_step=4 energy=-157.3670196533203 pbc="T T T"
P        1.62010267       2.03022770       2.71458829      -0.00525171       0.01596317       0.01507027
P        2.95101127       2.03022770       6.25900283       0.00525729       0.01596202      -0.01506227
P        3.90832864       4.93923001       3.51203397      -0.00524796      -0.01596146       0.01506706
P        5.23923724       4.93923001       7.05644851       0.00525166      -0.01595977      -0.01506443
Mo       2.13938750       0.00000000       5.15608745       0.09252892       0.00000247       0.07518258
Mo       5.64291693       4.16484332       1.96655392      -0.10587800       0.04054791      -0.03689730
Mo       3.35469100       2.80461439       1.16910825      -0.10587351      -0.04054560      -0.03689898
Mo       0.29879641       0.00000000       3.07417855       0.11921456       0.00000151      -0.00138877
Mo       3.09699506       4.49562876       5.84011048       0.00323869      -0.00984645      -0.00929061
Mo       1.47411888       4.49562876       3.13348063      -0.00323831      -0.00984780       0.00929520
Mo       0.80876909       2.47382895       5.04266480       0.00323775       0.00984025      -0.00930154
Mo       3.76234485       2.47382895       3.93092632      -0.00323848       0.00984073       0.00929621
Mo       3.08678736       0.00000000       2.44193972      -0.00234655       0.00000102      -0.01364938
Mo       1.06510908       1.29009771       0.37119002       0.00633261      -0.01211669       0.00220602
Mo       3.35333505       5.67936000       1.16863570       0.00633210       0.01211689       0.00220403
Mo       3.93056037       0.00000000       7.38416273      -0.01031897       0.00000181       0.00923151
16
Lattice="4.58141158 0.0 1.5966198 2.29070579 6.96543447 0.7983099 -0.00153418 0.0 7.37576482" Properties=species:S:1:pos:R:3:forces:R:3 e_per_atom_relaxed=-9.8374714475 mp_id=mp-10004 energy_per_atom=-9.8356773853302 ef_per_atom_relaxed=-9.8374714475 corrected_total_energy=-9.8356773853302 ef_per_atom=-0.34932244026785675 task_id=mp-10004 calc_id=1 ionic_step=3 energy=-157.3708381652832 pbc="T T T"
P        1.62321399       2.02830875       2.71364044      -0.01303039       0.03958666       0.03738838
P        2.95666341       2.02830875       6.25874418       0.01302833       0.03958982      -0.03738721
P        3.91391978       4.93712572       3.51195034      -0.01302756      -0.03958772       0.03738505
P        5.24736920       4.93712572       7.05705408       0.01302743      -0.03958851      -0.03738366
Mo       2.14147543       0.00000000       5.15064728       0.11098321       0.00000029       0.12147155
Mo       5.65266502       4.15901906       1.96995113      -0.13671076       0.07818102      -0.04764448
Mo       3.36195923       2.80641541       1.17164123      -0.13671014      -0.07818008      -0.04764618
Mo       0.29589509       0.00000000       3.07507469       0.16244185      -0.00000007      -0.02618235
Mo       3.10292340       4.49268517       5.83905928      -0.00382283       0.01161839       0.01097199
Mo       1.47695400       4.49268517       3.13332534       0.00382580       0.01161971      -0.01097353
Mo       0.81221761       2.47274930       5.04074938      -0.00382107      -0.01161783       0.01096936
Mo       3.76765979       2.47274930       3.93163524       0.00381943      -0.01161860      -0.01097056
Mo       3.08833737       0.00000000       2.44223989       0.07293643      -0.00000124      -0.02234090
Mo       1.06859325       1.28987107       0.37240425      -0.05809572      -0.04510392      -0.02024406
Mo       3.35929908       5.67556340       1.17071416      -0.05809915       0.04510413      -0.02024612
Mo       3.93576507       0.00000000       7.38195602       0.04325542      -0.00000204       0.06283262
16
Lattice="4.63950661 0.0 1.61686589 2.3197533 7.06533558 0.80843294 -0.00536291 0.0 7.48022441" Properties=species:S:1:pos:R:3:forces:R:3 e_per_atom_relaxed=-9.8374714475 mp_id=mp-10004 energy_per_atom=-9.79452633857727 ef_per_atom_relaxed=-9.8374714475 corrected_total_energy=-9.79452633857727 ef_per_atom=-0.3298660946428562 task_id=mp-10004 calc_id=1 ionic_step=1 energy=-156.71242141723633 pbc="T T T"
P        1.64216596       2.05898610       2.75273208       0.00403252      -0.01226326      -0.01157726
P        2.99197774       2.05898610       6.34435821      -0.00403696      -0.01225993       0.01157074
P        3.96191926       5.00634948       3.56116503       0.00403253       0.01225958      -0.01157774
P        5.31173104       5.00634948       7.15279116      -0.00402927       0.01226050       0.01157892
Mo       2.16774276       0.00000000       5.22461026       0.12269896      -0.00000130       0.19243602
Mo       5.72244792       4.22021799       1.99427043      -0.16921304       0.14133805      -0.05897090
Mo       3.40269462       2.84511759       1.18583749      -0.16921252      -0.14133945      -0.05897010
Mo       0.30051831       0.00000000       3.11767096       0.21572594       0.00000154      -0.07449593
Mo       3.13982892       4.55707376       5.92010747      -0.00107007       0.00324959       0.00306092
Mo       1.49431477       4.55707376       3.17698283       0.00106620       0.00324991      -0.00306457
Mo       0.82007562       2.50826182       5.11167452      -0.00106590      -0.00324493       0.00306915
Mo       3.81406808       2.50826182       3.98541577       0.00107005      -0.00324725      -0.00305855
Mo       3.12966851       0.00000000       2.47591583      -0.06426861       0.00000028      -0.04873825
Mo       1.07936824       1.30806966       0.37615933       0.07245214      -0.02486771       0.02524886
Mo       3.39912155       5.75726592       1.18459227       0.07245690       0.02486697       0.02525206
Mo       3.98524531       0.00000000       7.48572170      -0.08063923      -0.00000214      -0.00176311
16
Lattice="4.55813274 0.0 1.58850713 2.27906637 6.92540381 0.79425357 0.0 0.0 7.33390757" Properties=species:S:1:pos:R:3:forces:R:3 e_per_atom_relaxed=-9.8374714475 mp_id=mp-10004 energy_per_atom=-9.835645198822021 ef_per_atom_relaxed=-9.8374714475 corrected_total_energy=-9.835645198822021 ef_per_atom=-0.3459340546428571 task_id=mp-10004 calc_id=1 ionic_step=0 energy=-157.37032318115234 pbc="T T T"
P        1.61563015       2.01598505       2.69794685      -0.03392457       0.10308836       0.09734815
P        2.94250259       2.01598505       6.22446786       0.03392692       0.10309061      -0.09734305
P        3.89469652       4.90941876       3.49220041      -0.03392943      -0.10308477       0.09734660
P        5.22156896       4.90941876       7.01872142       0.03392285      -0.10308843      -0.09735145
Mo       2.13092706       0.00000000       5.12096990       0.04277045      -0.00000140       0.03609040
Mo       5.62473580       4.13446607       1.96021780      -0.04934990       0.02000241      -0.01719915
Mo       3.34566943       2.79093774       1.16596424      -0.04935278      -0.02000317      -0.01719936
Mo       0.29399956       0.00000000       3.05802346       0.05593804       0.00000061      -0.00169233
Mo       3.08813493       4.46688546       5.80658397       0.01046971      -0.03181292      -0.03003358
Mo       1.46999781       4.46688546       3.11583074      -0.01046689      -0.03181305       0.03004038
Mo       0.80906856       2.45851835       5.01233040       0.01046759       0.03180968      -0.03004306
Mo       3.74906418       2.45851835       3.91008430      -0.01047122       0.03181048       0.03003749
Mo       3.07172565       0.00000000       2.42873464       0.00266847       0.00000062       0.01865532
Mo       1.06432399       1.28258479       0.37091642      -0.00817627       0.01673912      -0.00284975
Mo       3.34339036       5.64281902       1.16516998      -0.00817782      -0.01673748      -0.00285060
Mo       3.91589184       0.00000000       7.34035436       0.01368526      -0.00000042      -0.01295599
16
Lattice="-4.927503 4.927503 2.424809 4.927503 -4.927503 2.424809 4.927503 4.927503 -2.424809" Properties=species:S:1:pos:R:3:forces:R:3 bandgap=0.0 e_per_atom_relaxed=-9.8374714475 mp_id=mp-10004 energy_per_atom=-9.835665464401245 ef_per_atom_relaxed=-9.8374714475 corrected_total_energy=-9.835665464401245 ef_per_atom=-0.34992346526785667 task_id=mp-1775816 calc_id=0 ionic_step=0 energy=-157.37064743041992 pbc="T T T"
Mo       1.98071331       1.98071331       3.54330792      -0.01149819      -0.01149852       0.00878431
Mo       1.98071331      -1.98071331       1.30631008      -0.01149570       0.01149866      -0.00878812
Mo      -1.98071331       1.98071331       1.30631008       0.01149903      -0.01149623      -0.00878833
Mo       2.94678969       2.94678969       1.11849892       0.01149778       0.01149769       0.00878562
Mo       3.49619149       0.00000000       0.00000000       0.03877710       0.00000030       0.00000068
Mo       0.00000000       6.35881451       0.00000000      -0.00000035      -0.03877651       0.00000026
Mo       0.00000000       3.49619149       0.00000000      -0.00000002       0.03877645      -0.00000013
Mo       6.35881451       0.00000000       0.00000000      -0.03877660       0.00000009      -0.00000004
Mo       4.01387003       4.01387003      -1.29986009       0.04611917       0.04611893       0.06075310
Mo      -0.91363297       0.91363297       3.72466909       0.04612428      -0.04612207      -0.06075038
Mo       0.91363297      -0.91363297       3.72466909      -0.04612249       0.04612429      -0.06075043
Mo       0.91363297       0.91363297       1.12494891      -0.04611872      -0.04611827       0.06075285
P        2.05370441       4.92750300      -0.00000000       0.03600988      -0.00000283       0.00000036
P        0.00000000       2.87379859       2.42480900      -0.00000006      -0.03601188       0.00000021
P        4.92750300       2.05370441      -0.00000000      -0.00000287       0.03600975       0.00000013
P        2.87379859       0.00000000       2.42480900      -0.03601152       0.00000015      -0.00000021
4
Lattice="3.46309859 0.0 -0.86375273 -0.21543389 3.45639119 -0.86375273 0.60374777 0.64255047 9.79493092" Properties=species:S:1:pos:R:3:forces:R:3 bandgap=0 e_per_atom_relaxed=-3.1378211 mp_id=mp-10006 energy_per_atom=-2.908707618713379 ef_per_atom_relaxed=-3.1378211 corrected_total_energy=-2.908707618713379 ef_per_atom=-0.25292894083333295 task_id=mp-10006 calc_id=0 ionic_step=9 energy=-11.634830474853516 pbc="T T T"
Ag       2.84533936       1.18537303       4.03371273       0.00000020       0.00000040       0.00000152
Te       1.62733089       1.73191899       6.52456085       0.02752565       0.02929491       0.11035919
Te       2.22408158       2.36702267       1.54286461      -0.02752571      -0.02929482      -0.11036104
Tl       0.00000000       0.00000000       0.00000000      -0.00000012      -0.00000046       0.00000040
4
Lattice="3.48604339 0.0 -0.86947554 -0.21686125 3.47929155 -0.86947554 0.56853266 0.60507209 9.70259916" Properties=species:S:1:pos:R:3:forces:R:3 e_per_atom_relaxed=-3.1378211 mp_id=mp-10006 energy_per_atom=-2.8912253379821777 ef_per_atom_relaxed=-3.1378211 corrected_total_energy=-2.8912253379821777 ef_per_atom=-0.2507986683333333 task_id=mp-10006 calc_id=0 ionic_step=3 energy=-11.564901351928711 pbc="T T T"
Ag       2.84458356       1.17235893       3.98182404       0.00000070      -0.00000174      -0.00000076
Te       1.61194672       1.71554608       6.46288025       0.00917162       0.00976171       0.03677845
Te       2.22576808       2.36881756       1.50076783      -0.00917293      -0.00976063      -0.03677768
Tl       0.00000000       0.00000000       0.00000000       0.00000059       0.00000056      -0.00000016
4
Lattice="3.48907542 0.0 -0.87023178 -0.21704986 3.48231771 -0.87023178 0.56395292 0.60019801 9.6906937" Properties=species:S:1:pos:R:3:forces:R:3 e_per_atom_relaxed=-3.1378211 mp_id=mp-10006 energy_per_atom=-2.8887391090393066 ef_per_atom_relaxed=-3.1378211 corrected_total_energy=-2.8887391090393066 ef_per_atom=-0.24967787833333302 task_id=mp-10006 calc_id=1 ionic_step=13 energy=-11.554956436157227 pbc="T T T"
Ag       2.84452056       1.17067843       3.97511507      -0.00000026      -0.00000093      -0.00000141
Te       1.60870406       1.71209501       6.44987916       0.01214409       0.01292500       0.04869151
Te       2.22727442       2.37042071       1.50035098      -0.01214397      -0.01292378      -0.04869020
Tl       0.00000000       0.00000000       0.00000000       0.00000027      -0.00000033       0.00000008
4
Lattice="3.4918826 0.0 -0.87093193 -0.21722449 3.48511945 -0.87093193 0.56515008 0.60147212 9.70147115" Properties=species:S:1:pos:R:3:forces:R:3 e_per_atom_relaxed=-3.1378211 mp_id=mp-10006 energy_per_atom=-2.88995623588562 ef_per_atom_relaxed=-3.1378211 corrected_total_energy=-2.88995623588562 ef_per_atom=-0.24967843583333296 task_id=mp-10006 calc_id=1 ionic_step=12 energy=-11.55982494354248 pbc="T T T"
Ag       2.84718087       1.17201592       3.97980364       0.00000008      -0.00000085      -0.00000284
Te       1.60980411       1.71326577       6.45428968       0.02362205       0.02514149       0.09471416
Te       2.23000408       2.37332580       1.50531761      -0.02362312      -0.02514116      -0.09471303
Tl       0.00000000       0.00000000       0.00000000       0.00000090       0.00000053       0.00000170
4
Lattice="3.49702815 0.0 -0.87221531 -0.21754459 3.49025504 -0.87221531 0.56085703 0.59690315 9.69521562" Properties=species:S:1:pos:R:3:forces:R:3 e_per_atom_relaxed=-3.1378211 mp_id=mp-10006 energy_per_atom=-2.8883867263793945 ef_per_atom_relaxed=-3.1378211 corrected_total_energy=-2.8883867263793945 ef_per_atom=-0.2494568858333334 task_id=mp-10006 calc_id=1 ionic_step=11 energy=-11.553546905517578 pbc="T T T"
Ag       2.84881348       1.17101534       3.97539250       0.00000107      -0.00000010       0.00000114
Te       1.60988019       1.71334673       6.45459469       0.02024771       0.02154920       0.08117840
Te       2.23046040       2.37381146       1.49619031      -0.02024852      -0.02154881      -0.08118042
Tl       0.00000000       0.00000000       0.00000000      -0.00000028      -0.00000031       0.00000066
4
Lattice="3.52031426 0.0 -0.87802325 -0.21899318 3.51349605 -0.87802325 0.54142888 0.57622636 9.66690632" Properties=species:S:1:pos:R:3:forces:R:3 e_per_atom_relaxed=-3.1378211 mp_id=mp-10006 energy_per_atom=-2.8811044692993164 ef_per_atom_relaxed=-3.1378211 corrected_total_energy=-2.8811044692993164 ef_per_atom=-0.2469930808333333 task_id=mp-10006 calc_id=1 ionic_step=9 energy=-11.524417877197266 pbc="T T T"
Ag       2.85620184       1.16648719       3.95542991      -0.00000028      -0.00000123      -0.00000138
Te       1.61021638       1.71370453       6.45594252       0.01052511       0.01120302       0.04219928
Te       2.23253358       2.37601788       1.45491730      -0.01052466      -0.01120169      -0.04219720
Tl       0.00000000       0.00000000       0.00000000      -0.00000013      -0.00000012      -0.00000061
4
Lattice="3.52158219 0.0 -0.87833949 -0.21907206 3.51476152 -0.87833949 0.5237833 0.5574467 9.59885867" Properties=species:S:1:pos:R:3:forces:R:3 e_per_atom_relaxed=-3.1378211 mp_id=mp-10006 energy_per_atom=-2.866577625274658 ef_per_atom_relaxed=-3.1378211 corrected_total_energy=-2.866577625274658 ef_per_atom=-0.24610552833333324 task_id=mp-10006 calc_id=1 ionic_step=8 energy=-11.466310501098633 pbc="T T T"
Ag       2.84831028       1.15741373       3.92108985       0.00000061       0.00000010       0.00000286
Te       1.60077321       1.70365445       6.41808149      -0.03862309      -0.04110564      -0.15485473
Te       2.22552022       2.36855377       1.42409820       0.03862268       0.04110575       0.15485220
Tl       0.00000000       0.00000000       0.00000000      -0.00000024      -0.00000018      -0.00000049
4
Lattice="3.52221615 0.0 -0.87849761 -0.2191115 3.51539426 -0.87849761 0.51496051 0.54805687 9.56483485" Properties=species:S:1:pos:R:3:forces:R:3 e_per_atom_relaxed=-3.1378211 mp_id=mp-10006 energy_per_atom=-2.85878849029541 ef_per_atom_relaxed=-3.1378211 corrected_total_energy=-2.85878849029541 ef_per_atom=-0.2453679933333334 task_id=mp-10006 calc_id=1 ionic_step=7 energy=-11.43515396118164 pbc="T T T"
Ag       2.84436449       1.15287700       3.90391982       0.00000081       0.00000022       0.00000321
Te       1.59603954       1.69861655       6.39910251      -0.05779514      -0.06150982      -0.23172107
Te       2.22202562       2.36483458       1.40873712       0.05779416       0.06150908       0.23171778
Tl       0.00000000       0.00000000       0.00000000       0.00000011       0.00000044       0.00000027
4
Lattice="3.52525594 0.0 -0.87925578 -0.2193006 3.51842816 -0.87925578 0.47265626 0.50303375 9.40169466" Properties=species:S:1:pos:R:3:forces:R:3 e_per_atom_relaxed=-3.1378211 mp_id=mp-10006 energy_per_atom=-2.8223929405212402 ef_per_atom_relaxed=-3.1378211 corrected_total_energy=-2.8223929405212402 ef_per_atom=-0.24085693833333335 task_id=mp-10006 calc_id=1 ionic_step=6 energy=-11.289571762084961 pbc="T T T"
Ag       2.82544493       1.13112391       3.82159155       0.00000049       0.00000100      -0.00000126
Te       1.57331313       1.67442952       6.30798414      -0.02799882      -0.02979827      -0.11224471
Te       2.20529847       2.34703239       1.33519896       0.02799542       0.02979415       0.11224306
Tl       0.00000000       0.00000000       0.00000000       0.00000289       0.00000309       0.00000289
4
Lattice="3.47710578 0.0 -0.86724635 -0.21630525 3.47037126 -0.86724635 0.53041971 0.56450964 9.53075887" Properties=species:S:1:pos:R:3:forces:R:3 e_per_atom_relaxed=-3.1378211 mp_id=mp-10006 energy_per_atom=-2.8459854125976562 ef_per_atom_relaxed=-3.1378211 corrected_total_energy=-2.8459854125976562 ef_per_atom=-0.241183225833333 task_id=mp-10006 calc_id=1 ionic_step=5 energy=-11.383941650390625 pbc="T T T"
Ag       2.81896288       1.14984763       3.89813308      -0.00000015      -0.00000034      -0.00000030
Te       1.59926012       1.70204412       6.41201498      -0.05750276      -0.06120068      -0.23054782
Te       2.19196012       2.33283678       1.38425119       0.05750148       0.06119768       0.23054618
Tl       0.00000000       0.00000000       0.00000000       0.00000143       0.00000334       0.00000201
4
Lattice="3.71509624 0.0 -0.92660502 -0.23111026 3.70790077 -0.92660502 0.2449139 0.26065445 8.89283677" Properties=species:S:1:pos:R:3:forces:R:3 e_per_atom_relaxed=-3.1378211 mp_id=mp-10006 energy_per_atom=-2.8488941192626953 ef_per_atom_relaxed=-3.1378211 corrected_total_energy=-2.8488941192626953 ef_per_atom=-0.23357279833333303 task_id=mp-10006 calc_id=1 ionic_step=4 energy=-11.395576477050781 pbc="T T T"
Ag       2.85100157       1.05730242       3.51981337      -0.00000057      -0.00000020      -0.00000021
Te       1.47102039       1.56556245       5.89785537      -0.00660267      -0.00702713      -0.02646749
Te       2.25787949       2.40299277       1.14177136       0.00660247       0.00702391       0.02646497
Tl       0.00000000       0.00000000       0.00000000       0.00000078       0.00000343       0.00000268
4
Lattice="3.83409147 0.0 -0.95628435 -0.23851277 3.82666553 -0.95628435 0.10216099 0.10872685 8.57387572" Properties=species:S:1:pos:R:3:forces:R:3 e_per_atom_relaxed=-3.1378211 mp_id=mp-10006 energy_per_atom=-3.0533995628356934 ef_per_atom_relaxed=-3.1378211 corrected_total_energy=-3.0533995628356934 ef_per_atom=-0.21585167583333323 task_id=mp-10006 calc_id=1 ionic_step=3 energy=-12.213598251342773 pbc="T T T"
Ag       2.86702090       1.01102981       3.33065351       0.00000016       0.00000028      -0.00000010
Te       1.40687967       1.49729944       5.64069197       0.03331809       0.03545727       0.13358475
Te       2.29086002       2.43809294       1.02061505      -0.03331886      -0.03545814      -0.13358715
Tl       0.00000000       0.00000000       0.00000000       0.00000062       0.00000067       0.00000241
4
Lattice="3.87375655 0.0 -0.96617746 -0.24098027 3.86625378 -0.96617746 0.05457669 0.05808432 8.46755537" Properties=species:S:1:pos:R:3:forces:R:3 e_per_atom_relaxed=-3.1378211 mp_id=mp-10006 energy_per_atom=-3.128178119659424 ef_per_atom_relaxed=-3.1378211 corrected_total_energy=-3.128178119659424 ef_per_atom=-0.20788720833333332 task_id=mp-10006 calc_id=1 ionic_step=2 energy=-12.512712478637695 pbc="T T T"
Ag       2.87236069       0.99560561       3.26760022       0.00000018       0.00000010       0.00000005
Te       1.38549582       1.47454124       5.55495623      -0.02940627      -0.03129834      -0.11789584
Te       2.30185715       2.44979686       0.98024422       0.02940706       0.03129698       0.11789988
Tl       0.00000000       0.00000000       0.00000000      -0.00000093       0.00000121      -0.00000398
4
Lattice="3.80348053 0.0 -0.94864949 -0.23660851 3.79611388 -0.94864949 0.0 0.0 8.09909254" Properties=species:S:1:pos:R:3:forces:R:3 e_per_atom_relaxed=-3.1378211 mp_id=mp-10006 energy_per_atom=-2.940014123916626 ef_per_atom_relaxed=-3.1378211 corrected_total_energy=-2.940014123916626 ef_per_atom=-0.17277458583333308 task_id=mp-10006 calc_id=1 ionic_step=0 energy=-11.760056495666504 pbc="T T T"
Ag       2.79345827       0.94902847       3.10089678       0.00000036       0.00000028      -0.00000024
Te       1.31617578       1.40076602       5.27702697       0.11231287       0.11952050       0.45029390
Te       2.25069624       2.39534786       0.92476659      -0.11231396      -0.11953184      -0.45029601
Tl       0.00000000       0.00000000       0.00000000       0.00000068       0.00001110       0.00000236
4
Lattice="3.52180028 -0.0 -0.87839356 -0.2190856 3.51497972 -0.87839357 0.51918944 0.55255715 9.58090538" Properties=species:S:1:pos:R:3:forces:R:3 bandgap=0.0 e_per_atom_relaxed=-3.1378211 mp_id=mp-10006 energy_per_atom=-2.865480899810791 ef_per_atom_relaxed=-3.1378211 corrected_total_energy=-2.865480899810791 ef_per_atom=-0.2323517133333334 task_id=mp-1178929 calc_id=0 ionic_step=2 energy=-11.461923599243164 pbc="T T T"
Tl       0.00000000       0.00000000       0.00000000      -0.00000006      -0.00000002       0.00000192
Ag       2.84617353       1.15502350       3.91205913       0.00000011      -0.00000178      -0.00000357
Te       1.58867289       1.69077631       6.36956768      -0.00959232      -0.01020830      -0.03845999
Te       2.23323123       2.37676056       1.45455057       0.00959218       0.01021011       0.03846148
4
Lattice="-1.784595 1.784595 9.505182 1.784595 -1.784595 9.505182 1.784595 1.784595 -9.505182" Properties=species:S:1:pos:R:3:forces:R:3 bandgap=0.0 e_per_atom_relaxed=-3.1378211 mp_id=mp-10006 energy_per_atom=-2.9087073802948 ef_per_atom_relaxed=-3.1378211 corrected_total_energy=-2.9087073802948 ef_per_atom=-0.26762514083333333 task_id=mp-1413657 calc_id=0 ionic_step=0 energy=-11.6348295211792 pbc="T T T"
Tl       0.00000000       0.00000000       0.00000000      -0.00000000      -0.00000000      -0.00000021
Ag      -0.00000000       1.78459500       4.75259100      -0.00000000      -0.00000001       0.00000433
Te       0.00000000       0.00000000       6.94389665      -0.00000003      -0.00000000       0.11744207
Te       0.00000000       0.00000000      12.06646735       0.00000001       0.00000003      -0.11744612
6
Lattice="4.16230789 -0.01560623 0.93893867 1.76134177 3.77130292 0.93893867 0.00957464 0.00607049 7.33777768" Properties=species:S:1:pos:R:3:forces:R:3 bandgap=0 e_per_atom_relaxed=-6.950213711666667 mp_id=mp-1001 energy_per_atom=-6.714969793955485 ef_per_atom_relaxed=-6.950213711666667 corrected_total_energy=-6.714969793955485 ef_per_atom=-0.7513377483333328 task_id=mp-1001 calc_id=0 ionic_step=7 energy=-40.28981876373291 pbc="T T T"
N        1.40626214       1.67871019       3.88920635      -0.01465423      -0.01051472       0.03268998
N        3.81025934       3.20288613       1.65755983       0.01576107       0.00878520      -0.03269524
N        2.12296496       0.55888105       7.55809519      -0.01576131      -0.00878526       0.03269488
N        4.52696216       2.08305699       5.32644867       0.01465368       0.01051517      -0.03268871
Ba       3.65677940       0.78702850       2.77338309       0.00615156      -0.00970209      -0.00000033
Ba       2.27644490       2.97473868       6.44227193      -0.00615086       0.00970174      -0.00000058
6
Lattice="4.16180416 -0.0137754 0.93944576 1.76278281 3.77006636 0.93944576 0.01047134 0.00663901 7.3377828" Properties=species:S:1:pos:R:3:forces:R:3 e_per_atom_relaxed=-6.950213711666667 mp_id=mp-1001 energy_per_atom=-6.71502669652303 ef_per_atom_relaxed=-6.950213711666667 corrected_total_energy=-6.71502669652303 ef_per_atom=-0.7513355349999998 task_id=mp-1001 calc_id=0 ionic_step=5 energy=-40.290160179138184 pbc="T T T"
N        1.40732244       1.67734105       3.89025024       0.00098073      -0.00605443       0.02086574
N        3.81243105       3.20222165       1.65753268       0.00505757      -0.00348549      -0.02085792
N        2.12262726       0.56070832       7.55914164      -0.00505790       0.00348523       0.02085785
N        4.52773587       2.08558892       5.32642408      -0.00097948       0.00605373      -0.02086598
Ba       3.65857177       0.78573353       2.77389146      -0.00116175       0.00183128      -0.00000033
Ba       2.27648654       2.97719644       6.44278286       0.00116090      -0.00183028       0.00000057
6
Lattice="4.16131016 -0.01243959 0.93925382 1.76378028 3.76904977 0.93925382 0.01026237 0.00650652 7.33721209" Properties=species:S:1:pos:R:3:forces:R:3 e_per_atom_relaxed=-6.950213711666667 mp_id=mp-1001 energy_per_atom=-6.715092937151591 ef_per_atom_relaxed=-6.950213711666667 corrected_total_energy=-6.715092937151591 ef_per_atom=-0.751314961666666 task_id=mp-1001 calc_id=0 ionic_step=1 energy=-40.290557622909546 pbc="T T T"
N        1.40821176       1.67549561       3.89031102      -0.07835197       0.03646898       0.05523898
N        3.81411982       3.20088308       1.65680267       0.00043639       0.08641414      -0.05523566
N        2.12123299       0.56223362       7.55891706      -0.00043703      -0.08641522       0.05523632
N        4.52714105       2.08762109       5.32540871       0.07835232      -0.03646925      -0.05523958
Ba       3.65980099       0.78423588       2.77355684      -0.00570285       0.00899491       0.00000001
Ba       2.27555182       2.97888082       6.44216289       0.00570314      -0.00899346      -0.00000007
6
Lattice="4.16158943 -0.01014051 0.94263676 1.76597884 3.76832167 0.94263676 0.01525621 0.0096727 7.34157433" Properties=species:S:1:pos:R:3:forces:R:3 e_per_atom_relaxed=-6.950213711666667 mp_id=mp-1001 energy_per_atom=-6.7147202889124555 ef_per_atom_relaxed=-6.950213711666667 corrected_total_energy=-6.7147202889124555 ef_per_atom=-0.7507161249999998 task_id=mp-1001 calc_id=1 ionic_step=18 energy=-40.28832173347473 pbc="T T T"
N        1.41117401       1.67453301       3.89526551      -0.05613556       0.05350383       0.04630860
N        3.81870164       3.20094731       1.66079518      -0.02444730       0.07358649      -0.04630541
N        2.12412284       0.56690655       7.56605267       0.02444576      -0.07358770       0.04630414
N        4.53165047       2.09332085       5.33158234       0.05613612      -0.05350352      -0.04630860
Ba       3.66052005       0.78860198       2.77803034       0.01080694      -0.01704594       0.00000134
Ba       2.28230443       2.97925188       6.44881751      -0.01080599       0.01704679      -0.00000013
6
Lattice="4.16284288 -0.00980289 0.94495628 1.76681886 3.76931134 0.94495628 0.01843712 0.01168946 7.34564168" Properties=species:S:1:pos:R:3:forces:R:3 e_per_atom_relaxed=-6.950213711666667 mp_id=mp-1001 energy_per_atom=-6.714409391085307 ef_per_atom_relaxed=-6.950213711666667 corrected_total_energy=-6.714409391085307 ef_per_atom=-0.7506587916666668 task_id=mp-1001 calc_id=1 ionic_step=16 energy=-40.28645634651184 pbc="T T T"
N        1.41240618       1.67554624       3.89872386       0.01078957       0.03463433       0.01737008
N        3.82094355       3.20260072       1.66400954      -0.03592750       0.00500061      -0.01736319
N        2.12715531       0.56859719       7.57154470       0.03592833      -0.00499979       0.01736490
N        4.53569268       2.09565167       5.33683038      -0.01078834      -0.03463386      -0.01736846
Ba       3.66046225       0.79276621       2.78136670       0.02437389      -0.03844556      -0.00000147
Ba       2.28763661       2.97843170       6.45418754      -0.02437592       0.03844427      -0.00000186
6
Lattice="4.16698232 -0.01300833 0.94518016 1.76568538 3.77442261 0.94518016 0.01735271 0.01100192 7.35219222" Properties=species:S:1:pos:R:3:forces:R:3 e_per_atom_relaxed=-6.950213711666667 mp_id=mp-1001 energy_per_atom=-6.714018901189168 ef_per_atom_relaxed=-6.950213711666667 corrected_total_energy=-6.714018901189168 ef_per_atom=-0.7505564433333336 task_id=mp-1001 calc_id=1 ionic_step=14 energy=-40.28411340713501 pbc="T T T"
N        1.41092290       1.67741746       3.90097764      -0.04012650       0.05552820       0.04415559
N        3.82234756       3.20630254       1.66547879      -0.03310775       0.05996258      -0.04414886
N        2.12767285       0.56611366       7.57707375       0.03310768      -0.05996367       0.04414854
N        4.53909751       2.09499874       5.34157490       0.04012654      -0.05552849      -0.04415694
Ba       3.65892818       0.79790981       2.78322822       0.04649857      -0.07333842       0.00000118
Ba       2.29109223       2.97450639       6.45932433      -0.04649866       0.07333975       0.00000048
6
Lattice="4.16035299 -0.00749479 0.94559042 1.76784438 3.7660748 0.94559042 0.02028073 0.01285834 7.34244225" Properties=species:S:1:pos:R:3:forces:R:3 e_per_atom_relaxed=-6.950213711666667 mp_id=mp-1001 energy_per_atom=-6.71440068880717 ef_per_atom_relaxed=-6.950213711666667 corrected_total_energy=-6.71440068880717 ef_per_atom=-0.7506137983333327 task_id=mp-1001 calc_id=1 ionic_step=13 energy=-40.28640413284302 pbc="T T T"
N        1.41365297       1.67467023       3.89837753       0.09547955       0.00264615      -0.02489140
N        3.82066147       3.20075539       1.66402444      -0.04311970      -0.08522002       0.02488705
N        2.12781663       0.57068296       7.56959865       0.04312035       0.08522172      -0.02488717
N        4.53482513       2.09676812       5.33524556      -0.09548026      -0.00264455       0.02489321
Ba       3.66143209       0.79063664       2.78120098       0.01332139      -0.02101529      -0.00000087
Ba       2.28704601       2.98080171       6.45242211      -0.01332130       0.02101196      -0.00000083
6
Lattice="4.15703832 -0.00473802 0.94579555 1.76892387 3.7619009 0.94579555 0.02174474 0.01378654 7.33756727" Properties=species:S:1:pos:R:3:forces:R:3 e_per_atom_relaxed=-6.950213711666667 mp_id=mp-1001 energy_per_atom=-6.714312156041463 ef_per_atom_relaxed=-6.950213711666667 corrected_total_energy=-6.714312156041463 ef_per_atom=-0.7504978183333336 task_id=mp-1001 calc_id=1 ionic_step=12 energy=-40.28587293624878 pbc="T T T"
N        1.41501667       1.67329872       3.89707666       0.16252562      -0.02304082      -0.06027288
N        3.81981708       3.19798392       1.66329808      -0.04848738      -0.15684986       0.06028284
N        2.12788985       0.57296550       7.56586029       0.04848712       0.15685014      -0.06028172
N        4.53269026       2.09765070       5.33208171      -0.16252345       0.02304071       0.06027224
Ba       3.66267205       0.78701898       2.78018737      -0.00244630       0.00385916      -0.00000084
Ba       2.28503488       2.98393044       6.44897100       0.00244439      -0.00385943       0.00000039
6
Lattice="4.15495292 -0.0028334 0.94557814 1.769757 3.75920231 0.94557814 0.0221549 0.01404659 7.33405911" Properties=species:S:1:pos:R:3:forces:R:3 e_per_atom_relaxed=-6.950213711666667 mp_id=mp-1001 energy_per_atom=-6.714282552401225 ef_per_atom_relaxed=-6.950213711666667 corrected_total_energy=-6.714282552401225 ef_per_atom=-0.7504450933333326 task_id=mp-1001 calc_id=1 ionic_step=10 energy=-40.28569531440735 pbc="T T T"
N        1.41638376       1.67205565       3.89571653       0.11503166      -0.00257662      -0.04111495
N        3.81931106       3.19555326       1.66246930      -0.04673918      -0.10514981       0.04111668
N        2.12755376       0.57486224       7.56274609       0.04673827       0.10514949      -0.04111587
N        4.53048106       2.09835985       5.32949886      -0.11503266       0.00257613       0.04111134
Ba       3.66405240       0.78368402       2.77909292      -0.01421880       0.02242715       0.00000144
Ba       2.28281242       2.98673148       6.44612247       0.01422073      -0.02242635       0.00000136
6
Lattice="4.15234793 -0.00021459 0.94481887 1.77101443 3.75572912 0.94481887 0.0219481 0.01391547 7.32905593" Properties=species:S:1:pos:R:3:forces:R:3 e_per_atom_relaxed=-6.950213711666667 mp_id=mp-1001 energy_per_atom=-6.714122931162517 ef_per_atom_relaxed=-6.950213711666667 corrected_total_energy=-6.714122931162517 ef_per_atom=-0.750267748333333 task_id=mp-1001 calc_id=1 ionic_step=9 energy=-40.2847375869751 pbc="T T T"
N        1.41880787       1.66996760       3.89325528      -0.06733853       0.07286897       0.03800759
N        3.81871464       3.19155014       1.66091042      -0.03718470       0.09198737      -0.03800953
N        2.12659582       0.57787986       7.55778325       0.03718445      -0.09198844       0.03800840
N        4.52650259       2.09946240       5.32543839       0.06733930      -0.07286978      -0.03800790
Ba       3.66662424       0.77802337       2.77708285      -0.03189061       0.05029941      -0.00000041
Ba       2.27868622       2.99140663       6.44161082       0.03189014      -0.05029753       0.00000185
6
Lattice="4.1545393 -0.00013648 0.94218792 1.77201982 3.75767782 0.94218792 0.01707986 0.01082893 7.33009409" Properties=species:S:1:pos:R:3:forces:R:3 e_per_atom_relaxed=-6.950213711666667 mp_id=mp-1001 energy_per_atom=-6.714271744092305 ef_per_atom_relaxed=-6.950213711666667 corrected_total_energy=-6.714271744092305 ef_per_atom=-0.7501153383333334 task_id=mp-1001 calc_id=1 ionic_step=7 energy=-40.28563046455383 pbc="T T T"
N        1.41697812       1.67009968       3.89315237       0.01318049       0.03019569      -0.01742140
N        3.82013831       3.19374495       1.65627052      -0.03293362       0.00096726       0.01741767
N        2.12350067       0.57462532       7.55819941       0.03293251      -0.00096662      -0.01741689
N        4.52666086       2.09827059       5.32131756      -0.01317859      -0.03019550       0.01742192
Ba       3.67197662       0.77042456       2.77471144      -0.07411632       0.11690056       0.00000010
Ba       2.27166236       2.99794571       6.43975849       0.07411554      -0.11690135      -0.00000139
6
Lattice="4.15877089 -0.00051985 0.93855748 1.77347809 3.76166865 0.93855748 0.010037 0.00636363 7.33297696" Properties=species:S:1:pos:R:3:forces:R:3 e_per_atom_relaxed=-6.950213711666667 mp_id=mp-1001 energy_per_atom=-6.713939070701599 ef_per_atom_relaxed=-6.950213711666667 corrected_total_energy=-6.713939070701599 ef_per_atom=-0.7495254250000001 task_id=mp-1001 calc_id=1 ionic_step=4 energy=-40.283634424209595 pbc="T T T"
N        1.41597455       1.67003844       3.89288489      -0.12941548       0.07698674       0.02871403
N        3.82279020       3.19600133       1.65071855      -0.01442829       0.14989156      -0.02871417
N        2.11949578       0.57151110       7.55937337       0.01442940      -0.14989014       0.02871465
N        4.52631143       2.09747399       5.31720703       0.12941584      -0.07698757      -0.02871488
Ba       3.67964294       0.76073039       2.77180172      -0.13079734       0.20629606      -0.00000074
Ba       2.26264304       3.00678204       6.43829020       0.13079581      -0.20629650       0.00000115
6
Lattice="4.11752124 -0.00135073 0.92266185 1.75513131 3.72471436 0.92266185 -0.00116212 -0.00073681 7.25795678" Properties=species:S:1:pos:R:3:forces:R:3 e_per_atom_relaxed=-6.950213711666667 mp_id=mp-1001 energy_per_atom=-6.713393449783325 ef_per_atom_relaxed=-6.950213711666667 corrected_total_energy=-6.713393449783325 ef_per_atom=-0.7463691816666661 task_id=mp-1001 calc_id=1 ionic_step=2 energy=-40.28036069869995 pbc="T T T"
N        1.40284521       1.64849785       3.84550938      -0.42628527       0.18943299       0.11076336
N        3.78267724       3.15735266       1.62879271       0.01049813       0.46634817      -0.11075555
N        2.08881319       0.56527416       7.47448777      -0.01049802      -0.46634853       0.11075717
N        4.46864522       2.07412897       5.25777110       0.42628479      -0.18943433      -0.11076587
Ba       3.64317340       0.74616907       2.73715105      -0.06907864       0.10895564       0.00000070
Ba       2.22831703       2.97645775       6.36612943       0.06907901      -0.10895418       0.00000032
6
Lattice="4.16976752 -0.00704533 0.92988978 1.77226672 3.77439816 0.92988978 -0.00606158 -0.00384315 7.33661288" Properties=species:S:1:pos:R:3:forces:R:3 e_per_atom_relaxed=-6.950213711666667 mp_id=mp-1001 energy_per_atom=-6.671381950378418 ef_per_atom_relaxed=-6.950213711666667 corrected_total_energy=-6.671381950378418 ef_per_atom=-0.7088889750000003 task_id=mp-1001 calc_id=1 ionic_step=1 energy=-40.02829170227051 pbc="T T T"
N        1.43504996       1.65997570       3.87754215      -2.69635177       1.12801445       1.28237343
N        3.82549080       3.17555668       1.65054385       0.12990016       2.91990805      -1.28237462
N        2.11048186       0.58795300       7.54584859      -0.12990129      -2.91990876       1.28237140
N        4.50092270       2.10353398       5.31885029       2.69635463      -1.12801385      -1.28236985
Ba       3.68467324       0.75471572       2.76404300      -0.08779718       0.13847850      -0.00000145
Ba       2.25129942       3.00879396       6.43234944       0.08779591      -0.13847847       0.00000117
6
Lattice="3.502572 2.24482 -0.938558 3.502572 -2.24482 -0.938558 -0.00149 0.0 -7.331931" Properties=species:S:1:pos:R:3:forces:R:3 bandgap=0.0 e_per_atom_relaxed=-6.950213711666667 mp_id=mp-1001 energy_per_atom=-6.714843114217122 ef_per_atom_relaxed=-6.950213711666667 corrected_total_energy=-6.714843114217122 ef_per_atom=-0.7515803983333333 task_id=mp-1072212 calc_id=0 ionic_step=0 energy=-40.289058685302734 pbc="T T T"
Ba       3.50219950       1.29643294      -2.77154075      -0.00000201      -0.03401503       0.00000165
Ba       3.50145450      -1.29643294      -6.43750625       0.00000008       0.03401549       0.00000034
N        2.08876889      -0.67243134      -3.88842106      -0.07507944       0.04297691      -0.06899228
N        4.91563011      -0.67243134      -1.65466044       0.07507648       0.04298363       0.06898706
N        4.91488511       0.67243134      -5.32062594       0.07507968      -0.04297739       0.06899222
N        2.08802389       0.67243134      -7.55438656      -0.07507462      -0.04298359      -0.06898900
6
Lattice="3.50851824 2.22399777 -0.94560195 3.50851824 -2.22399777 -0.94560195 0.01014983 0.0 -7.34351525" Properties=species:S:1:pos:R:3:forces:R:3 e_per_atom_relaxed=-6.950213711666667 mp_id=mp-1001 energy_per_atom=-6.7129588921864825 ef_per_atom_relaxed=-6.950213711666667 corrected_total_energy=-6.7129588921864825 ef_per_atom=-0.7489325400000004 task_id=mp-1072190 calc_id=1 ionic_step=9 energy=-40.2777533531189 pbc="T T T"
Ba       3.51105570       1.29529153      -2.78148076      -0.00000011      -0.01703084      -0.00000068
Ba       3.51613061      -1.29529153      -6.45323839       0.00000078       0.01703100      -0.00000009
N        2.10706618      -0.67842216      -3.88741133       0.07564034       0.31859639       0.04848884
N        4.91504521      -0.67842216      -1.67555019      -0.07562003       0.31857130      -0.04847393
N        4.92012013       0.67842216      -5.34730782      -0.07564083      -0.31859660      -0.04848832
N        2.11214110       0.67842216      -7.55916896       0.07562000      -0.31857127       0.04847421
6
Lattice="3.51753121 2.22138323 -0.95148863 3.51753121 -2.22138323 -0.95148863 0.01818968 0.0 -7.35950043" Properties=species:S:1:pos:R:3:forces:R:3 e_per_atom_relaxed=-6.950213711666667 mp_id=mp-1001 energy_per_atom=-6.712008515993754 ef_per_atom_relaxed=-6.950213711666667 corrected_total_energy=-6.712008515993754 ef_per_atom=-0.7475869049999994 task_id=mp-1072190 calc_id=1 ionic_step=6 energy=-40.272051095962524 pbc="T T T"
Ba       3.52207863       1.29970223      -2.79136374      -0.00000018       0.00483388      -0.00000089
Ba       3.53117347      -1.29970223      -6.47111395       0.00000119      -0.00483440       0.00000036
N        2.12200420      -0.68072936      -3.89238007      -0.24627070      -0.04414959      -0.19937024
N        4.92215306      -0.68072936      -1.69034740       0.24627054      -0.04414916       0.19937041
N        4.93124790       0.68072936      -5.37009762       0.24627049       0.04414928       0.19937052
N        2.13109904       0.68072936      -7.57213029      -0.24627136       0.04415001      -0.19937012
6
Lattice="3.56348706 2.25022595 -0.96458727 3.56348706 -2.25022595 -0.96458727 0.02094156 0.0 -7.45151991" Properties=species:S:1:pos:R:3:forces:R:3 e_per_atom_relaxed=-6.950213711666667 mp_id=mp-1001 energy_per_atom=-6.702376365661621 ef_per_atom_relaxed=-6.950213711666667 corrected_total_energy=-6.702376365661621 ef_per_atom=-0.7403132799999995 task_id=mp-1072190 calc_id=1 ionic_step=3 energy=-40.21425819396973 pbc="T T T"
Ba       3.56872245       1.33288115      -2.82746725      -0.00000044      -0.31413436      -0.00000072
Ba       3.57919323      -1.33288115      -6.55322720       0.00000123       0.31413400       0.00000167
N        2.14924008      -0.70301170      -3.94214123       0.01446515       0.39382946      -0.00463469
N        4.98820482      -0.70301170      -1.71279327      -0.01445071       0.39381203       0.00464690
N        4.99867560       0.70301170      -5.43855322      -0.01446536      -0.39382991       0.00463620
N        2.15971086       0.70301170      -7.66790118       0.01445014      -0.39381117      -0.00464936
6
Lattice="3.54630578 2.23167857 -0.97963915 3.54630578 -2.23167857 -0.97963915 0.05769211 0.0 -7.43159582" Properties=species:S:1:pos:R:3:forces:R:3 e_per_atom_relaxed=-6.950213711666667 mp_id=mp-1001 energy_per_atom=-6.522142748037974 ef_per_atom_relaxed=-6.950213711666667 corrected_total_energy=-6.522142748037974 ef_per_atom=-0.5743981166666662 task_id=mp-1072190 calc_id=1 ionic_step=1 energy=-39.132856488227844 pbc="T T T"
Ba       3.56072881       1.32598963      -2.83753811      -0.00000031      -0.58982265       0.00000033
Ba       3.58957486      -1.32598963      -6.55333602       0.00000035       0.58982337       0.00000036
N        2.12863953      -0.73102068      -3.96204129       6.06435823       7.38871670       4.56300259
N        4.99281808      -0.73102068      -1.71303492      -6.06436396       7.38872528      -4.56300402
N        5.02166414       0.73102068      -5.42883283      -6.06435776      -7.38871670      -4.56300259
N        2.15748559       0.73102068      -7.67783920       6.06436348      -7.38872528       4.56300354
6
Lattice="3.623429 2.292888 -0.968719 3.623429 -2.292888 -0.968719 0.0 0.0 -7.562143" Properties=species:S:1:pos:R:3:forces:R:3 e_per_atom_relaxed=-6.950213711666667 mp_id=mp-1001 energy_per_atom=-6.627273837725322 ef_per_atom_relaxed=-6.950213711666667 corrected_total_energy=-6.627273837725322 ef_per_atom=-0.6885186516666665 task_id=mp-1072190 calc_id=1 ionic_step=0 energy=-39.76364302635193 pbc="T T T"
Ba       3.62342900       1.37270619      -2.85925475       0.00000011      -0.42546117       0.00000078
Ba       3.62342900      -1.37270619      -6.64032625      -0.00000046       0.42546049      -0.00000107
N        2.19072517      -0.70941955      -3.98260214      -1.80118990      -1.79089224      -1.35085464
N        5.05613283      -0.70941955      -1.73590736       1.80119061      -1.79089308       1.35085464
N        5.05613283       0.70941955      -5.51697886       1.80119061       1.79089308       1.35085487
N        2.19072517       0.70941955      -7.76367364      -1.80119061       1.79089284      -1.35085440
6
Lattice="2.241948 3.630472 0.0 -2.241948 3.630472 0.0 0.0 1.9087 7.085194" Properties=species:S:1:pos:R:3:forces:R:3 bandgap=0.0 e_per_atom_relaxed=-6.950213711666667 mp_id=mp-1001 energy_per_atom=-6.714969754219055 ef_per_atom_relaxed=-6.950213711666667 corrected_total_energy=-6.714969754219055 ef_per_atom=-0.7528877666666669 task_id=mp-1300080 calc_id=0 ionic_step=0 energy=-40.28981852531433 pbc="T T T"
Ba      -1.29338429       4.10764700       1.77129850      -0.01148218       0.00000116       0.00000108
Ba       1.29338429       5.06199700       5.31389550       0.01148172       0.00000035      -0.00000109
N        0.66476449       3.02142393       3.21724489      -0.00103458      -0.00893611       0.03623130
N        0.66476449       5.19387007       0.32535211      -0.00102337       0.00894208      -0.03623997
N       -0.66476449       3.97577393       6.75984189       0.00102275      -0.00894214       0.03623921
N       -0.66476449       6.14822007       3.86794911       0.00103551       0.00893473      -0.03623062
14
Lattice="-5.52149002 -5.52149002 0.0 -5.52149002 -0.0 -5.52149002 0.0 -5.52149002 -5.52149002" Properties=species:S:1:pos:R:3:forces:R:3 bandgap=0.6759 e_per_atom_relaxed=-6.344728767142857 mp_id=mp-1001015 energy_per_atom=-6.053139005388532 ef_per_atom_relaxed=-6.344728767142857 corrected_total_energy=-6.053139005388532 ef_per_atom=-1.9521136755952384 task_id=mp-1104433 calc_id=0 ionic_step=2 energy=-84.74394607543945 pbc="T T T"
Y        0.00000000      -2.76074501      -2.76074501      -0.00000249       0.00000255       0.00000507
Y       -2.76074501       0.00000000      -2.76074501       0.00000495      -0.00000048       0.00000479
Y       -2.76074501      -2.76074501       0.00000000       0.00000491       0.00000254      -0.00000258
Y        0.00000000       0.00000000       0.00000000      -0.00000215      -0.00000027      -0.00000234
Zn      -4.14111751      -4.14111751      -4.14111751       0.00000167       0.00000002       0.00000145
Zn      -6.90186253      -6.90186253      -6.90186253       0.00000027      -0.00000006      -0.00000015
S       -2.74069228      -5.54154275      -5.54154275      -0.01331916       0.01331803       0.01331764
S       -5.54154275      -2.74069228      -5.54154275       0.01331729      -0.01331779       0.01331741
S       -5.54154275      -5.54154275      -2.74069228       0.01331764       0.01331821      -0.01331872
S       -2.74069228      -2.74069228      -2.74069228      -0.01332054      -0.01332024      -0.01332045
S       -8.30228776      -5.50143729      -5.50143729       0.01331958      -0.01331916      -0.01332098
S       -5.50143729      -8.30228776      -5.50143729      -0.01332152       0.01331708      -0.01332167
S       -5.50143729      -5.50143729      -8.30228776      -0.01332134      -0.01331922       0.01331976
S       -8.30228776      -8.30228776      -8.30228776       0.01332098       0.01331860       0.01332083
14
Lattice="-5.53040712 -5.53040712 0.0 -5.53040712 0.0 -5.53040712 0.0 -5.53040712 -5.53040712" Properties=species:S:1:pos:R:3:forces:R:3 e_per_atom_relaxed=-6.344728767142857 mp_id=mp-1001015 energy_per_atom=-6.0543644939150125 ef_per_atom_relaxed=-6.344728767142857 corrected_total_energy=-6.0543644939150125 ef_per_atom=-1.9517830941666674 task_id=mp-1104433 calc_id=0 ionic_step=0 energy=-84.76110291481018 pbc="T T T"
Y        0.00000000      -2.76520356      -2.76520356      -0.00000810      -0.00000511      -0.00000740
Y       -2.76520356       0.00000000      -2.76520356      -0.00000770      -0.00000563      -0.00000764
Y       -2.76520356      -2.76520356       0.00000000      -0.00000767      -0.00000530      -0.00000812
Y        0.00000000       0.00000000       0.00000000      -0.00000779      -0.00000809      -0.00000796
Zn      -4.14780534      -4.14780534      -4.14780534      -0.00000070      -0.00000069      -0.00000062
Zn      -6.91300890      -6.91300890      -6.91300890      -0.00000080      -0.00000030      -0.00000092
S       -2.74162146      -5.55398927      -5.55398927      -0.02585089       0.02585629       0.02585870
S       -5.55398927      -2.74162146      -5.55398927       0.02585864      -0.02585089       0.02585858
S       -5.55398927      -5.55398927      -2.74162146       0.02585861       0.02585620      -0.02585095
S       -2.74162146      -2.74162146      -2.74162146      -0.02584949      -0.02585021      -0.02584952
S       -8.31919278      -5.50682497      -5.50682497       0.02585822      -0.02585071      -0.02585074
S       -5.50682497      -8.31919278      -5.50682497      -0.02585083       0.02585840      -0.02585101
S       -5.50682497      -5.50682497      -8.31919278      -0.02585098      -0.02585107       0.02585840
S       -8.31919278      -8.31919278      -8.31919278       0.02585959       0.02585709       0.02585956
14
Lattice="-5.55749103 -5.55749103 0.0 -5.55749103 -0.0 -5.55749103 0.0 -5.55749103 -5.55749103" Properties=species:S:1:pos:R:3:forces:R:3 e_per_atom_relaxed=-6.344728767142857 mp_id=mp-1001015 energy_per_atom=-6.055700387273516 ef_per_atom_relaxed=-6.344728767142857 corrected_total_energy=-6.055700387273516 ef_per_atom=-1.9475194877380955 task_id=mp-1104433 calc_id=1 ionic_step=3 energy=-84.77980542182922 pbc="T T T"
Y        0.00000000      -2.77874552      -2.77874552      -0.00000861      -0.00000678      -0.00000692
Y       -2.77874552       0.00000000      -2.77874552      -0.00000673      -0.00000846      -0.00000695
Y       -2.77874552      -2.77874552       0.00000000      -0.00000692      -0.00000660      -0.00000857
Y        0.00000000       0.00000000       0.00000000      -0.00000569      -0.00000563      -0.00000587
Zn      -4.16811827      -4.16811827      -4.16811827       0.00000318       0.00000322       0.00000346
Zn      -6.94686379      -6.94686379      -6.94686379       0.00000113       0.00000137       0.00000104
S       -2.74102549      -5.59521100      -5.59521100      -0.18340737       0.18341294       0.18341279
S       -5.59521100      -2.74102549      -5.59521100       0.18341315      -0.18340749       0.18341312
S       -5.59521100      -5.59521100      -2.74102549       0.18341318       0.18341336      -0.18340757
S       -2.74102549      -2.74102549      -2.74102549      -0.18341026      -0.18341026      -0.18341029
S       -8.37395657      -5.51977106      -5.51977106       0.18341413      -0.18340722      -0.18340677
S       -5.51977106      -8.37395657      -5.51977106      -0.18340713       0.18341401      -0.18340713
S       -5.51977106      -5.51977106      -8.37395657      -0.18340716      -0.18340731       0.18341404
S       -8.37395657      -8.37395657      -8.37395657       0.18341511       0.18341494       0.18341514
14
Lattice="-5.59372821 -5.59372821 0.0 -5.59372821 -0.0 -5.59372821 0.0 -5.59372821 -5.59372821" Properties=species:S:1:pos:R:3:forces:R:3 e_per_atom_relaxed=-6.344728767142857 mp_id=mp-1001015 energy_per_atom=-6.0490096637180875 ef_per_atom_relaxed=-6.344728767142857 corrected_total_energy=-6.0490096637180875 ef_per_atom=-1.936114723452381 task_id=mp-1104433 calc_id=1 ionic_step=2 energy=-84.68613529205322 pbc="T T T"
Y        0.00000000      -2.79686411      -2.79686411      -0.00000871      -0.00000593      -0.00000592
Y       -2.79686411       0.00000000      -2.79686411      -0.00000693      -0.00001085      -0.00000655
Y       -2.79686411      -2.79686411       0.00000000      -0.00000595      -0.00000596      -0.00000856
Y        0.00000000       0.00000000       0.00000000      -0.00000836      -0.00000848      -0.00000839
Zn      -4.19529616      -4.19529616      -4.19529616       0.00000031       0.00000025       0.00000052
Zn      -6.99216026      -6.99216026      -6.99216026       0.00000070       0.00000069       0.00000079
S       -2.74013676      -5.65045549      -5.65045549      -0.31760177       0.31760770       0.31760737
S       -5.65045549      -2.74013676      -5.65045549       0.31760651      -0.31760079       0.31760639
S       -5.65045549      -5.65045549      -2.74013676       0.31760761       0.31760794      -0.31760165
S       -2.74013676      -2.74013676      -2.74013676      -0.31760299      -0.31760287      -0.31760311
S       -8.44731966      -5.53700093      -5.53700093       0.31761062      -0.31760103      -0.31760061
S       -5.53700093      -8.44731966      -5.53700093      -0.31760064       0.31761074      -0.31760055
S       -5.53700093      -5.53700093      -8.44731966      -0.31760037      -0.31760088       0.31761056
S       -8.44731966      -8.44731966      -8.44731966       0.31760973       0.31760979       0.31760955
14
Lattice="-5.68126667 -5.68126667 0.0 -5.68126667 -0.0 -5.68126667 0.0 -5.68126667 -5.68126667" Properties=species:S:1:pos:R:3:forces:R:3 e_per_atom_relaxed=-6.344728767142857 mp_id=mp-1001015 energy_per_atom=-6.037094133240836 ef_per_atom_relaxed=-6.344728767142857 corrected_total_energy=-6.037094133240836 ef_per_atom=-1.917577084166667 task_id=mp-1104433 calc_id=1 ionic_step=1 energy=-84.5193178653717 pbc="T T T"
Y        0.00000000      -2.84063334      -2.84063334      -0.00000145       0.00000366       0.00000334
Y       -2.84063334       0.00000000      -2.84063334       0.00000345      -0.00000126       0.00000365
Y       -2.84063334      -2.84063334       0.00000000       0.00000346       0.00000357      -0.00000150
Y        0.00000000       0.00000000       0.00000000      -0.00000179      -0.00000163      -0.00000190
Zn      -4.26095000      -4.26095000      -4.26095000      -0.00000047      -0.00000086      -0.00000084
Zn      -7.10158334      -7.10158334      -7.10158334      -0.00000005       0.00000023      -0.00000003
S       -2.80108377      -5.72081618      -5.72081618      -0.01498729       0.01498511       0.01498485
S       -5.72081618      -2.80108377      -5.72081618       0.01498497      -0.01498696       0.01498523
S       -5.72081618      -5.72081618      -2.80108377       0.01498482       0.01498523      -0.01498747
S       -2.80108377      -2.80108377      -2.80108377      -0.01498652      -0.01498652      -0.01498654
S       -8.56144957      -5.64171716      -5.64171716       0.01498556      -0.01498547      -0.01498482
S       -5.64171716      -8.56144957      -5.64171716      -0.01498526       0.01498514      -0.01498511
S       -5.64171716      -5.64171716      -8.56144957      -0.01498488      -0.01498541       0.01498553
S       -8.56144957      -8.56144957      -8.56144957       0.01498538       0.01498514       0.01498547
14
Lattice="-5.442882 -5.442882 0.0 -5.442882 0.0 -5.442882 0.0 -5.442882 -5.442882" Properties=species:S:1:pos:R:3:forces:R:3 e_per_atom_relaxed=-6.344728767142857 mp_id=mp-1001015 energy_per_atom=-5.95140062059675 ef_per_atom_relaxed=-6.344728767142857 corrected_total_energy=-5.95140062059675 ef_per_atom=-1.873450288452381 task_id=mp-1104433 calc_id=1 ionic_step=0 energy=-83.31960868835449 pbc="T T T"
Y        0.00000000      -2.72144100      -2.72144100      -0.00000314       0.00000064       0.00000074
Y       -2.72144100       0.00000000      -2.72144100       0.00000031      -0.00000377       0.00000043
Y       -2.72144100      -2.72144100       0.00000000       0.00000056       0.00000028      -0.00000318
Y        0.00000000       0.00000000       0.00000000      -0.00000401      -0.00000443      -0.00000385
Zn      -4.08216150      -4.08216150      -4.08216150       0.00000211       0.00000264       0.00000212
Zn      -6.80360250      -6.80360250      -6.80360250      -0.00000083      -0.00000065      -0.00000050
S       -2.63435489      -5.52996811      -5.52996811      -1.01265931       1.01265943       1.01265955
S       -5.52996811      -2.63435489      -5.52996811       1.01265979      -1.01265931       1.01265991
S       -5.52996811      -5.52996811      -2.63435489       1.01265991       1.01265967      -1.01265967
S       -2.63435489      -2.63435489      -2.63435489      -1.01266098      -1.01266110      -1.01266098
S       -8.25140911      -5.35579589      -5.35579589       1.01266301      -1.01266038      -1.01266074
S       -5.35579589      -8.25140911      -5.35579589      -1.01266074       1.01266360      -1.01266062
S       -5.35579589      -5.35579589      -8.25140911      -1.01266050      -1.01266062       1.01266289
S       -8.25140911      -8.25140911      -8.25140911       1.01266372       1.01266396       1.01266360
14
Lattice="5.51615716 5.51615716 0.0 5.51615716 0.0 -5.51615716 0.0 5.51615716 -5.51615716" Properties=species:S:1:pos:R:3:forces:R:3 bandgap=0.9104000000000001 e_per_atom_relaxed=-6.344728767142857 mp_id=mp-1001015 energy_per_atom=-6.052439996174404 ef_per_atom_relaxed=-6.344728767142857 corrected_total_energy=-6.052439996174404 ef_per_atom=-1.9533818684523812 task_id=mp-1001015 calc_id=0 ionic_step=0 energy=-84.73415994644165 pbc="T T T"
Y        5.51615716       2.75807858      -2.75807858       0.00000238      -0.00000025       0.00000016
Y        2.75807858       5.51615716      -2.75807858       0.00000008       0.00000210      -0.00000015
Y        2.75807858       2.75807858       0.00000000      -0.00000036       0.00000025       0.00000275
Y        0.00000000       0.00000000       0.00000000      -0.00000217      -0.00000206       0.00000234
Zn       6.89519645       6.89519645      -4.13711787      -0.00000016      -0.00000025      -0.00000113
Zn       4.13711787       4.13711787      -6.89519645       0.00000347       0.00000317       0.00000277
S        8.29091958       5.49947332      -5.53284100      -0.00766614       0.00766420       0.00766346
S        5.49947332       8.29091958      -5.53284100       0.00766429      -0.00766641       0.00766313
S        5.49947332       5.49947332      -2.74139474       0.00766474       0.00766462      -0.00766554
S        2.77476242       2.77476242      -2.74139474      -0.00766248      -0.00766262      -0.00766242
S        2.74139474       5.53284100      -5.49947332       0.00766587      -0.00766465      -0.00766596
S        5.53284100       2.74139474      -5.49947332      -0.00766408       0.00766668      -0.00766546
S        5.53284100       5.53284100      -8.29091958      -0.00766468      -0.00766453       0.00766608
S        8.25755190       8.25755190      -8.29091958       0.00765958       0.00765988       0.00765979
14
Lattice="5.54658212 5.54658212 -0.0 5.54658212 -0.0 -5.54658212 0.0 5.54658212 -5.54658212" Properties=species:S:1:pos:R:3:forces:R:3 e_per_atom_relaxed=-6.344728767142857 mp_id=mp-1001015 energy_per_atom=-6.055991036551339 ef_per_atom_relaxed=-6.344728767142857 corrected_total_energy=-6.055991036551339 ef_per_atom=-1.9504060413095243 task_id=mp-1001015 calc_id=1 ionic_step=3 energy=-84.78387451171875 pbc="T T T"
Y        5.54658212       2.77329106      -2.77329106       0.00000079      -0.00000665       0.00000620
Y        2.77329106       5.54658212      -2.77329106      -0.00000695       0.00000067       0.00000638
Y        2.77329106       2.77329106       0.00000000      -0.00000488      -0.00000629       0.00000179
Y        0.00000000       0.00000000       0.00000000      -0.00000359      -0.00000363       0.00000445
Zn       6.93322765       6.93322765      -4.15993659       0.00000195       0.00000127      -0.00000323
Zn       4.15993659       4.15993659      -6.93322765       0.00000179       0.00000271       0.00000053
S        8.35079965       5.51565560      -5.57750859      -0.09400535       0.09400806       0.09400558
S        5.51565560       8.35079965      -5.57750859       0.09400794      -0.09400514       0.09400553
S        5.51565560       5.51565560      -2.74236454       0.09400848       0.09400874      -0.09400901
S        2.80421753       2.80421753      -2.74236454      -0.09400564      -0.09400561      -0.09400940
S        2.74236459       5.57750864      -5.51565565       0.09400895      -0.09400392      -0.09400755
S        5.57750864       2.74236459      -5.51565565      -0.09400415       0.09400925      -0.09400779
S        5.57750864       5.57750864      -8.35079970      -0.09400484      -0.09400475       0.09400502
S        8.28894671       8.28894671      -8.35079970       0.09400541       0.09400532       0.09400171
14
Lattice="5.56703602 5.56703602 0.0 5.56703602 0.0 -5.56703602 -0.0 5.56703602 -5.56703602" Properties=species:S:1:pos:R:3:forces:R:3 e_per_atom_relaxed=-6.344728767142857 mp_id=mp-1001015 energy_per_atom=-6.054576090403965 ef_per_atom_relaxed=-6.344728767142857 corrected_total_energy=-6.054576090403965 ef_per_atom=-1.9454577905952388 task_id=mp-1001015 calc_id=1 ionic_step=2 energy=-84.76406526565552 pbc="T T T"
Y        5.56703602       2.78351801      -2.78351801      -0.00000846      -0.00000038      -0.00000065
Y        2.78351801       5.56703602      -2.78351801       0.00000001      -0.00000454       0.00000002
Y        2.78351801       2.78351801       0.00000000      -0.00000034      -0.00000041      -0.00000062
Y        0.00000000       0.00000000       0.00000000      -0.00000037      -0.00000043       0.00000038
Zn       6.95879502       6.95879502      -4.17527701       0.00000118       0.00000064       0.00000066
Zn       4.17527701       4.17527701      -6.95879502       0.00000072       0.00000083       0.00000052
S        8.39369834       5.52389171      -5.61018033      -0.25174350       0.25174570       0.25174186
S        5.52389171       8.39369834      -5.61018033       0.25174341      -0.25174633       0.25174189
S        5.52389171       5.52389171      -2.74037370       0.25174209       0.25174472      -0.25174326
S        2.82666232       2.82666232      -2.74037370      -0.25174114      -0.25174433      -0.25174293
S        2.74037370       5.61018033      -5.52389171       0.25174320      -0.25174510      -0.25174335
S        5.61018033       2.74037370      -5.52389171      -0.25174269       0.25174606      -0.25174293
S        5.61018033       5.61018033      -8.39369834      -0.25174338      -0.25174582       0.25174320
S        8.30740972       8.30740972      -8.39369834       0.25174928       0.25174940       0.25174493
14
Lattice="5.84474578 5.84474578 0.0 5.84474578 0.0 -5.84474578 -0.0 5.84474578 -5.84474578" Properties=species:S:1:pos:R:3:forces:R:3 e_per_atom_relaxed=-6.344728767142857 mp_id=mp-1001015 energy_per_atom=-5.909565823418753 ef_per_atom_relaxed=-6.344728767142857 corrected_total_energy=-5.909565823418753 ef_per_atom=-1.804636194880953 task_id=mp-1001015 calc_id=1 ionic_step=1 energy=-82.73392152786255 pbc="T T T"
Y        5.84474578       2.92237289      -2.92237289      -0.00000086      -0.00000140       0.00000214
Y        2.92237289       5.84474578      -2.92237289      -0.00000179      -0.00000053       0.00000175
Y        2.92237289       2.92237289       0.00000000      -0.00000232      -0.00000238      -0.00000015
Y        0.00000000       0.00000000       0.00000000      -0.00000019      -0.00000009      -0.00000038
Zn       7.30593223       7.30593223      -4.38355934       0.00000126       0.00000121      -0.00000053
Zn       4.38355934       4.38355934      -7.30593223      -0.00000165      -0.00000170       0.00000027
S        8.77642193       5.83544258      -5.85404904       0.44128004      -0.44128203      -0.44128454
S        5.83544258       8.77642193      -5.85404904      -0.44128251       0.44127992      -0.44128412
S        5.83544258       5.83544258      -2.91306969      -0.44128132      -0.44128138       0.44128096
S        2.93167615       2.93167615      -2.91306969       0.44128299       0.44128329       0.44128272
S        2.91306963       5.85404898      -5.83544252      -0.44128144       0.44128358       0.44128186
S        5.85404898       2.91306963      -5.83544252       0.44128403      -0.44128156       0.44128168
S        5.85404898       5.85404898      -8.77642187       0.44128600       0.44128594      -0.44128117
S        8.75781541       8.75781541      -8.77642187      -0.44128233      -0.44128272      -0.44128054
14
Lattice="5.26 5.26 0.0 5.26 0.0 -5.26 0.0 5.26 -5.26" Properties=species:S:1:pos:R:3:forces:R:3 e_per_atom_relaxed=-6.344728767142857 mp_id=mp-1001015 energy_per_atom=-5.824065004076276 ef_per_atom_relaxed=-6.344728767142857 corrected_total_energy=-5.824065004076276 ef_per_atom=-1.712215568452381 task_id=mp-1001015 calc_id=1 ionic_step=0 energy=-81.53691005706787 pbc="T T T"
Y        5.26000000       2.63000000      -2.63000000       0.00000481       0.00000891      -0.00000426
Y        2.63000000       5.26000000      -2.63000000       0.00000930       0.00000666      -0.00000345
Y        2.63000000       2.63000000       0.00000000       0.00000250       0.00000232      -0.00000235
Y        0.00000000       0.00000000       0.00000000       0.00000398       0.00000708      -0.00000891
Zn       6.57500000       6.57500000      -3.94500000      -0.00000982      -0.00001276       0.00000480
Zn       3.94500000       3.94500000      -6.57500000      -0.00000484      -0.00000638       0.00000887
S        7.97416000       5.17584000      -5.34416000      -1.57732499       1.57732487       1.57732475
S        5.17584000       7.97416000      -5.34416000       1.57732511      -1.57732522       1.57732463
S        5.17584000       5.17584000      -2.54584000       1.57732415       1.57732391      -1.57732248
S        2.71416000       2.71416000      -2.54584000      -1.57732654      -1.57732606      -1.57732379
S        2.54584000       5.34416000      -5.17584000       1.57732284      -1.57732463      -1.57732511
S        5.34416000       2.54584000      -5.17584000      -1.57732463       1.57732308      -1.57732511
S        5.34416000       5.34416000      -7.97416000      -1.57732606      -1.57732606       1.57732642
S        7.80584000       7.80584000      -7.97416000       1.57732439       1.57732439       1.57732558
14
Lattice="0.0 5.516157 5.516157 5.516157 0.0 5.516157 5.516157 5.516157 0.0" Properties=species:S:1:pos:R:3:forces:R:3 bandgap=0.4035000000000002 e_per_atom_relaxed=-6.344728767142857 mp_id=mp-1001015 energy_per_atom=-6.052439979144505 ef_per_atom_relaxed=-6.344728767142857 corrected_total_energy=-6.052439979144505 ef_per_atom=-1.9536702834523811 task_id=mp-1809168 calc_id=0 ionic_step=0 energy=-84.73415970802307 pbc="T T T"
Y        6.89519625       4.13711775       4.13711775      -0.00000516      -0.00000484      -0.00000519
Y        4.13711775       6.89519625       4.13711775      -0.00000519      -0.00000544      -0.00000542
Y        4.13711775       4.13711775       6.89519625      -0.00000511      -0.00000497      -0.00000529
Y        6.89519625       6.89519625       6.89519625      -0.00000508      -0.00000493      -0.00000507
Zn       2.75807850       2.75807850       2.75807850      -0.00003432      -0.00003460      -0.00003442
Zn       0.00000000       0.00000000       0.00000000       0.00003169       0.00003197       0.00003149
S        4.15379861       6.87850988       6.87850988      -0.00768977       0.00767466       0.00767481
S        6.87850988       4.15379861       6.87850988       0.00767505      -0.00768945       0.00767532
S        6.87850988       6.87850988       4.15379861       0.00767463       0.00767457      -0.00768995
S        4.15379861       4.15379861       4.15379861      -0.00761333      -0.00761378      -0.00761321
S        9.63659389       6.91188262       6.91188262       0.00769341      -0.00766921      -0.00766909
S        6.91188262       9.63659389       6.91188262      -0.00766927       0.00769347      -0.00766945
S        6.91188262       6.91188262       9.63659389      -0.00766948      -0.00766948       0.00769338
S        9.63659389       9.63659389       9.63659389       0.00762206       0.00762212       0.00762218
14
Lattice="0.0 5.59284695 5.59284695 5.59299704 0.0 5.59284695 5.59299704 5.59284695 0.0" Properties=species:S:1:pos:R:3:forces:R:3 bandgap=1.9291999999999998 e_per_atom_relaxed=-6.613292906428571 mp_id=mp-1001024 energy_per_atom=-6.330195273671832 ef_per_atom_relaxed=-6.613292906428571 corrected_total_energy=-6.330195273671832 ef_per_atom=-2.1739618096428575 task_id=mp-1001024 calc_id=0 ionic_step=2 energy=-88.62273383140564 pbc="T T T"
Y        4.19474778       6.99105869       4.19463521      -0.00000746      -0.00000910      -0.00000714
Y        4.19474778       4.19463521       6.99105869      -0.00000724      -0.00000723      -0.00000906
Y        6.99124630       4.19463521       4.19463521       0.00000010      -0.00000410      -0.00000920
Y        6.99124630       6.99105869       6.99105869      -0.00000312      -0.00000567      -0.00001086
Mg       0.00000000       0.00000000       0.00000000      -0.00000004       0.00000167       0.00000447
Mg       2.79649852       2.79642348       2.79642348       0.00000069       0.00000168       0.00000459
S        4.24605178       4.24591871       4.24591871      -0.00727235      -0.00759669      -0.00759672
S        4.24605178       6.93977519       6.93977519      -0.00726974       0.00760198       0.00760190
S        6.93994230       4.24591871       6.93977519       0.00727399      -0.00759545       0.00760102
S        6.93994230       6.93977519       4.24591871       0.00727414       0.00760153      -0.00759302
S        7.04255030       7.04234219       9.73619866      -0.00726482      -0.00759569       0.00760143
S        7.04255030       9.73619866       7.04234219      -0.00726517       0.00760168      -0.00759314
S        9.73644082       7.04234219       7.04234219       0.00727184      -0.00759600      -0.00759587
S        9.73644082       9.73619866       9.73619866       0.00726902       0.00760132       0.00760148
14
Lattice="0.0 5.58939828 5.58939828 5.58950641 0.0 5.58939828 5.58950641 5.58939828 0.0" Properties=species:S:1:pos:R:3:forces:R:3 e_per_atom_relaxed=-6.613292906428571 mp_id=mp-1001024 energy_per_atom=-6.331363311835697 ef_per_atom_relaxed=-6.613292906428571 corrected_total_energy=-6.331363311835697 ef_per_atom=-2.173831013214286 task_id=mp-1001024 calc_id=0 ionic_step=1 energy=-88.63908636569977 pbc="T T T"
Y        4.19212981       6.98674785       4.19204871       0.00000272       0.00000725       0.00000330
Y        4.19212981       4.19204871       6.98674785       0.00000422      -0.00000071       0.00000612
Y        6.98688301       4.19204871       4.19204871       0.00000335       0.00000009      -0.00000035
Y        6.98688301       6.98674785       6.98674785      -0.00000077       0.00000153       0.00000116
Mg       0.00000000       0.00000000       0.00000000      -0.00000744      -0.00000444      -0.00000617
Mg       2.79475321       2.79469914       2.79469914      -0.00000120      -0.00000435      -0.00000577
S        4.23943995       4.23933239       4.23933239       0.03927644       0.03924647       0.03924727
S        4.23943995       6.93946422       6.93946422       0.03927726      -0.03924648      -0.03924732
S        6.93957293       4.23933239       6.93946422      -0.03927696       0.03924684      -0.03924777
S        6.93957293       6.93946422       4.23933239      -0.03927703      -0.03924692       0.03924818
S        7.03419310       7.03403148       9.73416331       0.03927702       0.03924808      -0.03924808
S        7.03419310       9.73416331       7.03403148       0.03927724      -0.03924762       0.03924917
S        9.73432608       7.03403148       7.03403148      -0.03927690       0.03924818       0.03924887
S        9.73432608       9.73416331       9.73416331      -0.03927799      -0.03924789      -0.03924862
14
Lattice="0.0 5.5858392 5.5858392 5.58590404 0.0 5.5858392 5.58590404 5.5858392 0.0" Properties=species:S:1:pos:R:3:forces:R:3 e_per_atom_relaxed=-6.613292906428571 mp_id=mp-1001024 energy_per_atom=-6.33210894039699 ef_per_atom_relaxed=-6.613292906428571 corrected_total_energy=-6.33210894039699 ef_per_atom=-2.1733420189285715 task_id=mp-1001024 calc_id=0 ionic_step=0 energy=-88.64952516555786 pbc="T T T"
Y        4.18942803       6.98229900       4.18937940       0.00000234       0.00000727       0.00000588
Y        4.18942803       4.18937940       6.98229900       0.00000257       0.00000682       0.00000887
Y        6.98238005       4.18937940       4.18937940       0.00000870       0.00000764       0.00000748
Y        6.98238005       6.98229900       6.98229900       0.00000764       0.00000391       0.00000577
Mg       0.00000000       0.00000000       0.00000000      -0.00000624      -0.00000258      -0.00000260
Mg       2.79295202       2.79291960       2.79291960      -0.00000434      -0.00000349      -0.00000206
S        4.23261891       4.23253766       4.23253766       0.09353930       0.09378953       0.09378872
S        4.23261891       6.93914068       6.93914068       0.09353933      -0.09379400      -0.09379400
S        6.93918911       4.23253766       6.93914068      -0.09353988       0.09378852      -0.09379391
S        6.93918911       6.93914068       4.23253766      -0.09354044      -0.09379360       0.09378809
S        7.02557099       7.02545732       9.73206034       0.09354042       0.09378951      -0.09379514
S        7.02557099       9.73206034       7.02545732       0.09354047      -0.09379455       0.09378887
S        9.73214119       7.02545732       7.02545732      -0.09354535       0.09378977       0.09378965
S        9.73214119       9.73206034       9.73206034      -0.09354471      -0.09379477      -0.09379552
14
Lattice="0.0 5.65359475 5.65359475 5.65364544 0.0 5.65359475 5.65364544 5.65359475 0.0" Properties=species:S:1:pos:R:3:forces:R:3 e_per_atom_relaxed=-6.613292906428571 mp_id=mp-1001024 energy_per_atom=-6.289062589406967 ef_per_atom_relaxed=-6.613292906428571 corrected_total_energy=-6.289062589406967 ef_per_atom=-2.165887621785714 task_id=mp-1001024 calc_id=1 ionic_step=1 energy=-88.04687625169754 pbc="T T T"
Y        4.24023408       7.06699344       4.24019606       0.00001090       0.00000280       0.00000387
Y        4.24023408       4.24019606       7.06699344       0.00001090       0.00000372       0.00000292
Y        7.06705680       4.24019606       4.24019606      -0.00000457       0.00000389       0.00000388
Y        7.06705680       7.06699344       7.06699344      -0.00000892      -0.00000168      -0.00000172
Mg       0.00000000       0.00000000       0.00000000      -0.00000599      -0.00000476      -0.00000599
Mg       2.82682272       2.82679737       2.82679737      -0.00000235      -0.00000263      -0.00000260
S        4.28205217       4.28198218       4.28198218       0.12771048       0.12788600       0.12788591
S        4.28205217       7.02520732       7.02520732       0.12771073      -0.12788630      -0.12788619
S        7.02523871       4.28198218       7.02520732      -0.12771071       0.12788662      -0.12788647
S        7.02523871       7.02520732       4.28198218      -0.12771057      -0.12788665       0.12788624
S        7.10887489       7.10877955       9.85200470       0.12771015       0.12789048      -0.12788996
S        7.10887489       9.85200470       7.10877955       0.12771051      -0.12789063       0.12789080
S        9.85206143       7.10877955       7.10877955      -0.12770985       0.12789027       0.12789033
S        9.85206143       9.85200470       9.85200470      -0.12771113      -0.12789114      -0.12789106
14
Lattice="0.0 5.484438 5.484438 5.484524 0.0 5.484438 5.484524 5.484438 0.0" Properties=species:S:1:pos:R:3:forces:R:3 e_per_atom_relaxed=-6.613292906428571 mp_id=mp-1001024 energy_per_atom=-6.324064544269016 ef_per_atom_relaxed=-6.613292906428571 corrected_total_energy=-6.324064544269016 ef_per_atom=-2.1556449910714295 task_id=mp-1001024 calc_id=1 ionic_step=0 energy=-88.53690361976624 pbc="T T T"
Y        4.11339300       6.85554750       4.11332850       0.00000875      -0.00000170       0.00000157
Y        4.11339300       4.11332850       6.85554750       0.00000847       0.00000150      -0.00000148
Y        6.85565500       4.11332850       4.11332850      -0.00000370       0.00000084       0.00000082
Y        6.85565500       6.85554750       6.85554750      -0.00000385      -0.00000119      -0.00000104
Mg       0.00000000       0.00000000       0.00000000       0.00000331       0.00000007       0.00000017
Mg       2.74226200       2.74221900       2.74221900       0.00000250       0.00000002      -0.00000015
S        4.15869517       4.15859705       4.15859705      -0.11132431      -0.11131181      -0.11131161
S        4.15869517       6.81027895       6.81027895      -0.11132422       0.11131149       0.11131179
S        6.81035283       4.15859705       6.81027895       0.11132206      -0.11131208       0.11131237
S        6.81035283       6.81027895       4.15859705       0.11132243       0.11131261      -0.11131245
S        6.90095717       6.90081605       9.55249795      -0.11132985      -0.11131086       0.11131102
S        6.90095717       9.55249795       6.90081605      -0.11132969       0.11131103      -0.11131096
S        9.55261483       6.90081605       6.90081605       0.11132425      -0.11130928      -0.11130933
S        9.55261483       9.55249795       9.55249795       0.11132412       0.11130924       0.11130918
14
Lattice="0.0 5.592897 5.592897 5.592897 0.0 5.592897 5.592897 5.592897 0.0" Properties=species:S:1:pos:R:3:forces:R:3 bandgap=0.2525000000000004 e_per_atom_relaxed=-6.613292906428571 mp_id=mp-1001024 energy_per_atom=-6.330195111887796 ef_per_atom_relaxed=-6.613292906428571 corrected_total_energy=-6.330195111887796 ef_per_atom=-2.1740293782142857 task_id=mp-1838034 calc_id=0 ionic_step=0 energy=-88.62273156642914 pbc="T T T"
Y        4.19467275       6.99112125       4.19467275       0.00000169       0.00000895       0.00000151
Y        4.19467275       4.19467275       6.99112125       0.00000200       0.00000119       0.00001083
Y        6.99112125       4.19467275       4.19467275       0.00001083       0.00000094       0.00000190
Y        6.99112125       6.99112125       6.99112125       0.00000973       0.00001068       0.00000971
Mg       0.00000000       0.00000000       0.00000000      -0.00001661      -0.00001768      -0.00001703
Mg       2.79644850       2.79644850       2.79644850       0.00001712       0.00001628       0.00001705
S        4.24595962       4.24595962       4.24595962      -0.00745501      -0.00745317      -0.00745478
S        4.24595962       6.93982879       6.93982879      -0.00745890       0.00750014       0.00750208
S        6.93982879       4.24595962       6.93982879       0.00750224      -0.00745940       0.00750244
S        6.93982879       6.93982879       4.24595962       0.00750190       0.00750059      -0.00745890
S        7.04241371       7.04241371       9.73628288      -0.00750846      -0.00750557       0.00745142
S        7.04241371       9.73628288       7.04241371      -0.00750823       0.00745179      -0.00750847
S        9.73628288       7.04241371       7.04241371       0.00745107      -0.00750498      -0.00750802
S        9.73628288       9.73628288       9.73628288       0.00745057       0.00745033       0.00745018
14
Lattice="0.0 5.72644796 5.73525959 5.72647841 0.0 5.73525959 5.72647841 5.72644796 0.0" Properties=species:S:1:pos:R:3:forces:R:3 bandgap=1.2049999999999996 e_per_atom_relaxed=-3.985792137857143 mp_id=mp-1001034 energy_per_atom=-3.7176301138741628 ef_per_atom_relaxed=-3.985792137857143 corrected_total_energy=-3.7176301138741628 ef_per_atom=-0.9738020189583332 task_id=mp-1001034 calc_id=0 ionic_step=8 energy=-52.04682159423828 pbc="T T T"
Mg       0.00000000       0.00000000       0.00000000       0.00000453       0.00000137       0.00000051
Mg       2.86323921       2.86322398       2.86762980       0.00000335       0.00000225      -0.00000143
In       4.29485881       4.29483597       7.16907449       0.00000548       0.00000511       0.00000473
In       4.29485881       7.15805995       4.30144469       0.00000484       0.00000494      -0.00000541
In       7.15809801       4.29483597       4.30144469       0.00000970       0.00000444      -0.00000545
In       7.15809801       7.15805995       7.16907449       0.00001032       0.00000588       0.00000623
Se       4.37616650       4.37611419       4.38600783       0.00506240       0.00492778       0.00838199
Se       4.37616650       7.07678178       7.08451141       0.00506458      -0.00492382      -0.00838393
Se       7.07679038       4.37611419       7.08451141      -0.00506583       0.00492829      -0.00838330
Se       7.07679038       7.07678178       4.38600783      -0.00506872      -0.00492498       0.00838515
Se       7.23940565       9.94000571       7.25363756       0.00505617      -0.00492746       0.00838655
Se       7.23940565       7.23933812       9.95214115       0.00505930       0.00491315      -0.00838923
Se       9.94002953       7.23933812       7.25363756      -0.00507456       0.00491017       0.00838694
Se       9.94002953       9.94000571       9.95214115      -0.00507164      -0.00492692      -0.00838378
14
Lattice="0.0 5.7323114 5.74041108 5.73243986 0.0 5.74041108 5.73243986 5.7323114 0.0" Properties=species:S:1:pos:R:3:forces:R:3 e_per_atom_relaxed=-3.985792137857143 mp_id=mp-1001034 energy_per_atom=-3.7087244306291853 ef_per_atom_relaxed=-3.985792137857143 corrected_total_energy=-3.7087244306291853 ef_per_atom=-0.9735061082440475 task_id=mp-1001034 calc_id=0 ionic_step=7 energy=-51.922142028808594 pbc="T T T"
Mg       0.00000000       0.00000000       0.00000000       0.00000119      -0.00000259       0.00000523
Mg       2.86621993       2.86615570       2.87020554       0.00000192      -0.00000306       0.00000368
In       4.29932990       4.29923355       7.17551385      -0.00000785      -0.00000501      -0.00000089
In       4.29932990       7.16538925       4.30530831      -0.00000615      -0.00000989       0.00000119
In       7.16554983       4.29923355       4.30530831      -0.00000776      -0.00000420       0.00000072
In       7.16554983       7.16538925       7.17551385      -0.00000764      -0.00001051      -0.00000296
Se       4.38704901       4.38692358       4.39636426      -0.04760030      -0.04743674      -0.04558235
Se       4.38704901       7.07769916       7.08445784      -0.04760113       0.04743993       0.04558283
Se       7.07783065       4.38692358       7.08445784       0.04760756      -0.04743600       0.04558067
Se       7.07783065       7.07769916       4.39636426       0.04760876       0.04743868      -0.04558396
Se       7.25326900       9.94385492       7.26656986      -0.04759958       0.04744923      -0.04558089
Se       7.25326900       7.25307934       9.95466344      -0.04760033      -0.04743469       0.04558143
Se       9.94405064       7.25307934       7.26656986       0.04760639      -0.04743403      -0.04558301
Se       9.94405064       9.94385492       9.95466344       0.04760516       0.04744887       0.04557845
14
Lattice="0.0 5.73660274 5.74418135 5.73680293 0.0 5.74418135 5.73680293 5.73660274 0.0" Properties=species:S:1:pos:R:3:forces:R:3 e_per_atom_relaxed=-3.985792137857143 mp_id=mp-1001034 energy_per_atom=-3.7020628792898997 ef_per_atom_relaxed=-3.985792137857143 corrected_total_energy=-3.7020628792898997 ef_per_atom=-0.9728518403869045 task_id=mp-1001034 calc_id=0 ionic_step=6 energy=-51.828880310058594 pbc="T T T"
Mg       0.00000000       0.00000000       0.00000000       0.00000226       0.00000066      -0.00000431
Mg       2.86840146       2.86830137       2.87209067       0.00000061       0.00000007      -0.00000368
In       4.30260220       4.30245206       7.18022669       0.00000573       0.00000441       0.00000644
In       4.30260220       7.17075343       4.30813601       0.00000446      -0.00000447      -0.00000579
In       7.17100366       4.30245206       4.30813601       0.00000022       0.00000432      -0.00000598
In       7.17100366       7.17075343       7.18022669      -0.00000047      -0.00000435       0.00000688
Se       4.39501859       4.39483953       4.40394827      -0.09583431      -0.09540577      -0.09368165
Se       4.39501859       7.07836595       7.08441443      -0.09583563       0.09540583       0.09368384
Se       7.07858727       4.39483953       7.08441443       0.09582444      -0.09540924       0.09368643
Se       7.07858727       7.07836595       4.40394827       0.09582371       0.09540838      -0.09368433
Se       7.26342006       9.94666732       7.27603894      -0.09582637       0.09541662      -0.09367032
Se       7.26342006       7.26314090       9.95650511      -0.09582621      -0.09541705       0.09367116
Se       9.94698873       7.26314090       7.27603894       0.09583077      -0.09541425      -0.09366807
Se       9.94698873       9.94666732       9.95650511       0.09583108       0.09541474       0.09366937
14
Lattice="0.0 5.71931802 5.72702155 5.71950725 0.0 5.72702155 5.71950725 5.71931802 0.0" Properties=species:S:1:pos:R:3:forces:R:3 e_per_atom_relaxed=-3.985792137857143 mp_id=mp-1001034 energy_per_atom=-3.728436061314174 ef_per_atom_relaxed=-3.985792137857143 corrected_total_energy=-3.728436061314174 ef_per_atom=-0.9724793968154761 task_id=mp-1001034 calc_id=0 ionic_step=2 energy=-52.19810485839844 pbc="T T T"
Mg       0.00000000       0.00000000       0.00000000       0.00000118      -0.00000259       0.00000332
Mg       2.85975363       2.85965901       2.86351077       0.00000214      -0.00000080       0.00000649
In       4.28963044       4.28948852       7.15877694      -0.00000032      -0.00000332      -0.00000539
In       4.28963044       7.14914753       4.29526616      -0.00000009      -0.00000199       0.00000480
In       7.14938406       4.28948852       4.29526616       0.00000474      -0.00000499       0.00000436
In       7.14938406       7.14914753       7.15877694       0.00000463       0.00000159      -0.00000531
Se       4.38219992       4.38202931       4.39118530      -0.10954541      -0.10915898      -0.10737818
Se       4.38219992       7.05660673       7.06285780      -0.10954304       0.10916606       0.10737661
Se       7.05681458       4.38202931       7.06285780       0.10954636      -0.10915716       0.10737540
Se       7.05681458       7.05660673       4.39118530       0.10954556       0.10916603      -0.10737619
Se       7.24195354       9.91626574       7.25469607      -0.10954519       0.10915796      -0.10738552
Se       7.24195354       7.24168832       9.92636858      -0.10954334      -0.10915971       0.10738158
Se       9.91656821       7.24168832       7.25469607       0.10953465      -0.10916343      -0.10738552
Se       9.91656821       9.91626574       9.92636858       0.10953817       0.10916147       0.10738347
14
Lattice="0.0 5.92892995 5.93511863 5.92925215 0.0 5.93511863 5.92925215 5.92892995 0.0" Properties=species:S:1:pos:R:3:forces:R:3 e_per_atom_relaxed=-3.985792137857143 mp_id=mp-1001034 energy_per_atom=-3.6513434818812778 ef_per_atom_relaxed=-3.985792137857143 corrected_total_energy=-3.6513434818812778 ef_per_atom=-0.9305865025297617 task_id=mp-1001034 calc_id=0 ionic_step=0 energy=-51.11880874633789 pbc="T T T"
Mg       0.00000000       0.00000000       0.00000000      -0.00000186      -0.00000374       0.00000498
Mg       2.96462607       2.96446497       2.96755931       0.00000009      -0.00000367       0.00000131
In       4.44693911       4.44669746       7.41889829      -0.00000843      -0.00000881       0.00000029
In       4.44693911       7.41116244       4.45133897      -0.00000855      -0.00000186      -0.00000551
In       7.41156519       4.44669746       4.45133897       0.00000137      -0.00000838      -0.00000590
In       7.41156519       7.41116244       7.41889829       0.00000117      -0.00000175       0.00000010
Se       4.53768940       4.53741703       4.54599563       0.16993889       0.17102873       0.17373595
Se       4.53768940       7.32044287       7.32424163       0.16993448      -0.17103949      -0.17372268
Se       7.32081490       4.53741703       7.32424163      -0.16994673       0.17102718      -0.17372546
Se       7.32081490       7.32044287       4.54599563      -0.16993430      -0.17103732       0.17372930
Se       7.50231547      10.28490785       7.51355494       0.16994819      -0.17101851       0.17373413
Se       7.50231547       7.50188200      10.29180095       0.16994715       0.17104104      -0.17373377
Se      10.28544098       7.50188200       7.51355494      -0.16993317       0.17104405       0.17372832
Se      10.28544098      10.28490785      10.29180095      -0.16993827      -0.17101780      -0.17374137
14
Lattice="0.0 5.95123063 5.97308887 5.96038332 0.0 5.97308887 5.96038332 5.95123063 0.0" Properties=species:S:1:pos:R:3:forces:R:3 e_per_atom_relaxed=-3.985792137857143 mp_id=mp-1001034 energy_per_atom=-3.6830250876290456 ef_per_atom_relaxed=-3.985792137857143 corrected_total_energy=-3.6830250876290456 ef_per_atom=-0.9167058589583333 task_id=mp-1001034 calc_id=1 ionic_step=1 energy=-51.56235122680664 pbc="T T T"
Mg       0.00000000       0.00000000       0.00000000       0.00000050       0.00000009      -0.00000687
Mg       2.98019166       2.97561532       2.98654443       0.00000043       0.00000005      -0.00000301
In       4.47028749       4.46342297       7.46636109      -0.00000564      -0.00000507      -0.00000266
In       4.47028749       7.43903829       4.47981665      -0.00000591       0.00000559      -0.00001075
In       7.45047915       4.46342297       4.47981665      -0.00000392      -0.00000516      -0.00001041
In       7.45047915       7.43903829       7.46636109      -0.00000398       0.00000428      -0.00000306
Se       4.55961266       4.55233727       4.57188841       0.15679641       0.18934408       0.12735474
Se       4.55961266       7.35012399       7.37428933       0.15679301      -0.18934020      -0.12735531
Se       7.36115398       4.55233727       7.37428933      -0.15678823       0.18934031      -0.12735564
Se       7.36115398       7.35012399       4.57188841      -0.15679181      -0.18934408       0.12735507
Se       7.53980432      10.32573930       7.55843285       0.15679339      -0.18934733       0.12736243
Se       7.53980432       7.52795259      10.36083376       0.15679373       0.18934797      -0.12734354
Se      10.34134564       7.52795259       7.55843285      -0.15678874       0.18934755       0.12736273
Se      10.34134564      10.32573930      10.36083376      -0.15678918      -0.18934809      -0.12734407
12
Lattice="3.36162156 0.0 3.35606801 3.36162156 0.0 -3.35606801 0.0 6.58336481 0.0" Properties=species:S:1:pos:R:3:forces:R:3 bandgap=5.9998000000000005 e_per_atom_relaxed=-6.663820256666667 mp_id=mp-1001080 energy_per_atom=-6.323949317137401 ef_per_atom_relaxed=-6.663820256666667 corrected_total_energy=-6.323949317137401 ef_per_atom=-1.5180180481250005 task_id=mp-1001080 calc_id=0 ionic_step=5 energy=-75.8873918056488 pbc="T T T"
H        3.36162156       1.37125663      -0.55913187       0.00000001      -0.08229268       0.02605808
H        3.36162156       5.21210818      -0.55913187       0.00000002       0.08229303       0.02605772
H        3.36162156       4.66293903      -2.79693614       0.00000001      -0.08229256      -0.02605945
H        3.36162156       1.92042578      -2.79693614       0.00000002       0.08229280      -0.02605933
C        3.36162156       3.29168240      -0.68752000       0.00000003      -0.00000260      -0.03033046
C        3.36162156       0.00000000      -2.66854801      -0.00000000      -0.00000381       0.03035030
O        3.36162156       3.29168240      -1.95290262      -0.00000004      -0.00000238       0.02606902
O        3.36162156       0.00000000      -1.40316539      -0.00000001      -0.00000184      -0.02606323
O        3.36162156       2.19778327       0.03668901      -0.00000001      -0.00375420       0.02715995
O        3.36162156       4.38558154       0.03668901      -0.00000000       0.00375909       0.02716481
O        3.36162156       5.48946567       3.31937900       0.00000001      -0.00376952      -0.02717148
O        3.36162156       1.09389914       3.31937900       0.00000002       0.00377464      -0.02717662
12
Lattice="3.36389462 0.0 3.3568581 3.36389462 0.0 -3.3568581 0.0 6.58239395 0.0" Properties=species:S:1:pos:R:3:forces:R:3 e_per_atom_relaxed=-6.663820256666667 mp_id=mp-1001080 energy_per_atom=-6.324331447482109 ef_per_atom_relaxed=-6.663820256666667 corrected_total_energy=-6.324331447482109 ef_per_atom=-1.5179571997916668 task_id=mp-1001080 calc_id=0 ionic_step=4 energy=-75.89197736978531 pbc="T T T"
H        3.36389462       1.37402096      -0.56020544      -0.00000001      -0.06499016      -0.00492513
H        3.36389462       5.20837299      -0.56020544       0.00000001       0.06498873      -0.00492525
H        3.36389462       4.66521793      -2.79665266       0.00000001      -0.06499636       0.00492746
H        3.36389462       1.91717602      -2.79665266      -0.00000003       0.06499481       0.00492787
C        3.36389462       3.29119698      -0.68800740       0.00000000       0.00000083       0.03045970
C        3.36389462       0.00000000      -2.66885070       0.00000003      -0.00000980      -0.03045365
O        3.36389462       3.29119698      -1.95294485      -0.00000000       0.00000020      -0.00258869
O        3.36389462       0.00000000      -1.40391325      -0.00000001      -0.00000029       0.00259426
O        3.36389462       2.19755690       0.03757083       0.00000001       0.03723454       0.03476631
O        3.36389462       4.38483705       0.03757083       0.00000001      -0.03723490       0.03476588
O        3.36389462       5.48875388       3.31928727      -0.00000001       0.03723639      -0.03477024
O        3.36389462       1.09364007       3.31928727       0.00000000      -0.03722483      -0.03477773
12
Lattice="3.36202341 0.0 3.35851032 3.36202341 0.0 -3.35851032 0.0 6.59123371 0.0" Properties=species:S:1:pos:R:3:forces:R:3 e_per_atom_relaxed=-6.663820256666667 mp_id=mp-1001080 energy_per_atom=-6.323990056912105 ef_per_atom_relaxed=-6.663820256666667 corrected_total_energy=-6.323990056912105 ef_per_atom=-1.5176034689583333 task_id=mp-1001080 calc_id=0 ionic_step=1 energy=-75.88788068294525 pbc="T T T"
H        3.36202341       1.37336040      -0.55990082      -0.00000000      -0.11706197      -0.02104127
H        3.36202341       5.21787331      -0.55990082       0.00000002       0.11706996      -0.02105039
H        3.36202341       4.66897725      -2.79860950       0.00000003      -0.11706150       0.02104241
H        3.36202341       1.92225646      -2.79860950      -0.00000002       0.11706150       0.02104247
C        3.36202341       3.29561686      -0.69054573      -0.00000002       0.00001008       0.28077674
C        3.36202341       0.00000000      -2.66796459      -0.00000002      -0.00000093      -0.28075987
O        3.36202341       3.29561686      -1.95596860      -0.00000003      -0.00000011       0.18098266
O        3.36202341       0.00000000      -1.40254172       0.00000004      -0.00000083      -0.18098238
O        3.36202341       2.19680092       0.03906868      -0.00000000       0.39062434      -0.18780315
O        3.36202341       4.39443279       0.03906868       0.00000001      -0.39064029      -0.18780023
O        3.36202341       5.49241777       3.31944164       0.00000001       0.39061889       0.18779686
O        3.36202341       1.09881594       3.31944164      -0.00000000      -0.39061809       0.18779646
12
Lattice="3.35965611 0.0 3.35129414 3.35965611 0.0 -3.35129414 0.0 6.5745505 0.0" Properties=species:S:1:pos:R:3:forces:R:3 e_per_atom_relaxed=-6.663820256666667 mp_id=mp-1001080 energy_per_atom=-6.322236612439156 ef_per_atom_relaxed=-6.663820256666667 corrected_total_energy=-6.322236612439156 ef_per_atom=-1.5177034539583332 task_id=mp-1001080 calc_id=1 ionic_step=1 energy=-75.86683934926987 pbc="T T T"
H        3.35965611       1.37079233      -0.55894057       0.00000003      -0.02836108       0.05684561
H        3.35965611       5.20375817      -0.55894057      -0.00000002       0.02836204       0.05684531
H        3.35965611       4.65806758      -2.79235357      -0.00000004      -0.02836430      -0.05684263
H        3.35965611       1.91648292      -2.79235357      -0.00000000       0.02836239      -0.05684435
C        3.35965611       3.28727525      -0.68337023      -0.00000000      -0.00000001      -0.35061044
C        3.35965611       0.00000000      -2.66792391      -0.00000001      -0.00000418       0.35061830
O        3.35965611       3.28727525      -1.94844757      -0.00000008       0.00000047      -0.13740374
O        3.35965611       0.00000000      -1.40284657       0.00000000       0.00000032       0.13741511
O        3.35965611       2.19785264       0.03547104      -0.00000001      -0.36294085       0.24751557
O        3.35965611       4.37669786       0.03547104      -0.00000001       0.36294013       0.24751556
O        3.35965611       5.48512789       3.31582310       0.00000001      -0.36294419      -0.24752690
O        3.35965611       1.08942261       3.31582310       0.00000001       0.36294979      -0.24752723
12
Lattice="3.36875 0.0 3.3603 3.36875 0.0 -3.3603 0.0 6.5826 0.0" Properties=species:S:1:pos:R:3:forces:R:3 e_per_atom_relaxed=-6.663820256666667 mp_id=mp-1001080 energy_per_atom=-6.325549294551213 ef_per_atom_relaxed=-6.663820256666667 corrected_total_energy=-6.325549294551213 ef_per_atom=-1.5178945631249996 task_id=mp-1001080 calc_id=1 ionic_step=0 energy=-75.90659153461456 pbc="T T T"
H        3.36875000       1.37717866      -0.56147253      -0.00000000      -0.06007159      -0.04578149
H        3.36875000       5.20542134      -0.56147253      -0.00000001       0.06006813      -0.04577863
H        3.36875000       4.66847866      -2.79882747       0.00000002      -0.06006825       0.04577726
H        3.36875000       1.91412134      -2.79882747      -0.00000002       0.06006765       0.04577821
C        3.36875000       3.29130000      -0.69003761      -0.00000002      -0.00000334       0.16468912
C        3.36875000       0.00000000      -2.67026240       0.00000002      -0.00000260      -0.16469744
O        3.36875000       3.29130000      -1.95451849      -0.00000003      -0.00000240      -0.02967221
O        3.36875000       0.00000000      -1.40578150      -0.00000003      -0.00000055       0.02966949
O        3.36875000       2.19786431       0.03824021       0.00000000       0.10607398       0.02144174
O        3.36875000       4.38473569       0.03824021       0.00000000      -0.10606533       0.02144416
O        3.36875000       5.48916431       3.32205979       0.00000001       0.10607994      -0.02143374
O        3.36875000       1.09343569       3.32205979       0.00000002      -0.10607547      -0.02143617
12
Lattice="3.356068 -3.361622 0.0 3.356068 3.361622 0.0 0.0 0.0 6.583365" Properties=species:S:1:pos:R:3:forces:R:3 bandgap=5.9017 e_per_atom_relaxed=-6.663820256666667 mp_id=mp-1001080 energy_per_atom=-6.323949282368024 ef_per_atom_relaxed=-6.663820256666667 corrected_total_energy=-6.323949282368024 ef_per_atom=-1.5211422689583334 task_id=mp-1405033 calc_id=0 ionic_step=0 energy=-75.88739138841629 pbc="T T T"
H        4.47496765       0.00000000       3.56626807       0.02611768      -0.00000001       0.08224213
H        4.47496765       0.00000000       6.30877943       0.02612263       0.00000001      -0.08223712
H        2.23716835       0.00000000       0.27458557      -0.02611464      -0.00000005       0.08224571
H        2.23716835       0.00000000       3.01709693      -0.02611160      -0.00000002      -0.08224916
C        4.34658462       0.00000000       1.64584125      -0.03052309      -0.00000002      -0.00000237
C        2.36555138       0.00000000       4.93752375       0.03051327      -0.00000000      -0.00000995
O        3.08119932       0.00000000       1.64584125       0.02617192       0.00000007       0.00000073
O        3.63093668       0.00000000       4.93752375      -0.02615416      -0.00000003      -0.00000253
O        5.07079054       0.00000000       2.73973976       0.02718988      -0.00000001       0.00391906
O        5.07079054       0.00000000       0.55194274       0.02718437      -0.00000000      -0.00391746
O        1.64134546       0.00000000       6.03142226      -0.02720084      -0.00000000       0.00392145
O        1.64134546       0.00000000       3.84362524      -0.02719542      -0.00000001      -0.00390846
96
Lattice="-6.87164391 0.0 0.0 0.0 0.0 -9.15878714 0.0 -15.92961025 0.0" Properties=species:S:1:pos:R:3:forces:R:3 bandgap=3.8350999999999997 e_per_atom_relaxed=-5.569216596145833 mp_id=mp-1001112 energy_per_atom=-5.482666651407878 ef_per_atom_relaxed=-5.569216596145833 corrected_total_energy=-5.482666651407878 ef_per_atom=-1.2535738346874994 task_id=mp-1001112 calc_id=0 ionic_step=32 energy=-526.3359985351562 pbc="T T T"
Na      -5.13316164     -15.75289241      -6.72780471       0.03840290       0.04848081       0.00698223
Na      -5.17430423      -0.17671784      -2.14841114      -0.03840251      -0.04848244       0.00698502
Na      -1.73848227      -7.78808729      -7.01037600      -0.03840243       0.04848216      -0.00698359
Na      -1.69733968      -8.14152296      -2.43098243       0.03840397      -0.04848422      -0.00698175
Na      -1.73848227      -0.17671784      -2.43098243      -0.03840335      -0.04848240      -0.00698179
Na      -1.69733968     -15.75289241      -7.01037600       0.03840244       0.04848156      -0.00698289
Na      -5.13316164      -8.14152296      -2.14841114       0.03840286      -0.04848217       0.00698259
Na      -5.17430423      -7.78808729      -6.72780471      -0.03840258       0.04848236       0.00698449
Na      -5.20833907     -11.95123931      -9.15033926      -0.01388829      -0.01417372       0.01517630
Na      -5.09912680      -3.97837094      -4.57094569       0.01389083       0.01417062       0.01517676
Na      -1.66330484      -3.98643419      -4.58784145       0.01388838      -0.01417137      -0.01517574
Na      -1.77251711     -11.94317606      -0.00844788      -0.01388729       0.01417392      -0.01517598
Na      -1.66330484      -3.97837094      -0.00844788       0.01388976       0.01417278      -0.01517424
Na      -1.77251711     -11.95123931      -4.58784145      -0.01388981      -0.01417325      -0.01517676
Na      -5.20833907     -11.94317606      -4.57094569      -0.01388909       0.01417174       0.01517792
Na      -5.09912680      -3.98643419      -9.15033926       0.01388723      -0.01417177       0.01517563
H       -0.36194508     -12.92582816      -6.64420110       0.02957046       0.00225377      -0.00907385
H       -3.07387687      -3.00378209      -2.06480753      -0.02957238      -0.00225949      -0.00907701
H       -6.50969883      -4.96102304      -7.09397961      -0.02957266       0.00226009       0.00907791
H       -3.79776704     -10.96858721      -2.51458604       0.02957689      -0.00227296       0.00908571
H       -6.50969883      -3.00378209      -2.51458604      -0.02957143      -0.00225759       0.00907636
H       -3.79776704     -12.92582816      -7.09397961       0.02957199       0.00226068       0.00907832
H       -0.36194508     -10.96858721      -2.06480753       0.02957886      -0.00227630      -0.00908816
H       -3.07387687      -4.96102304      -6.64420110      -0.02957111       0.00225711      -0.00907636
H       -6.56607620     -14.27106383      -4.42703944       0.01729754      -0.03094076       0.01709545
H       -3.74138967      -1.65854642      -9.00643301      -0.01729712       0.03094075       0.01709318
H       -0.30556771      -6.30625871      -0.15235413      -0.01729751      -0.03094153      -0.01709521
H       -3.13025424      -9.62335154      -4.73174770       0.01729862       0.03093995      -0.01709008
H       -0.30556771      -1.65854642      -4.73174770      -0.01729737       0.03094112      -0.01709437
H       -3.13025424     -14.27106383      -0.15235413       0.01729739      -0.03094138      -0.01709473
H       -6.56607620      -9.62335154      -9.00643301       0.01729833       0.03094023       0.01709151
H       -3.74138967      -6.30625871      -4.42703944      -0.01729606      -0.03094134       0.01709735
H       -6.57768735     -14.62188722      -0.26980541      -0.01817280       0.02293622       0.02502042
H       -3.72977851      -1.30772303      -4.84919898       0.01817068      -0.02293181       0.02502394
H       -0.29395656      -6.65708209      -4.30958816       0.01817080       0.02293146      -0.02502263
H       -3.14186540      -9.27252816      -8.88898173      -0.01817255      -0.02293611      -0.02502114
H       -0.29395656      -1.30772303      -8.88898173       0.01817212      -0.02293611      -0.02502179
H       -3.14186540     -14.62188722      -4.30958816      -0.01816832       0.02292621      -0.02502656
H       -6.57768735      -9.27252816      -4.84919898      -0.01817097      -0.02293086       0.02502441
H       -3.72977851      -6.65708209      -0.26980541       0.01817383       0.02293777       0.02502018
C       -0.02779161     -10.54366391      -6.85120892      -0.00644646       0.01563084       0.03947325
C       -3.40803035      -5.38594634      -2.27181535       0.00644699      -0.01561832       0.03948529
C       -6.84385230      -2.57885878      -6.88697179       0.00644629       0.01562361      -0.03949009
C       -3.46361356     -13.35075147      -2.30757822      -0.00644866      -0.01558720      -0.03948655
C       -6.84385230      -5.38594634      -2.30757822       0.00644699      -0.01561579      -0.03948845
C       -3.46361356     -10.54366391      -6.88697179      -0.00644566       0.01563102      -0.03948470
C       -0.02779161     -13.35075147      -2.27181535      -0.00644912      -0.01558707       0.03948396
C       -3.40803035      -2.57885878      -6.85120892       0.00644686       0.01562473       0.03947940
O       -0.08667383     -11.65822703      -7.52104873      -0.05226052      -0.03869319      -0.05526373
O       -3.34914812      -4.27138322      -2.94165516       0.05226153       0.03869826      -0.05525970
O       -6.78497008      -3.69342191      -6.21713198       0.05225990      -0.03869203       0.05525953
O       -3.52249579     -12.23618834      -1.63773841      -0.05225889       0.03867155       0.05525138
O       -6.78497008      -4.27138322      -1.63773841       0.05226140       0.03869945       0.05526233
O       -3.52249579     -11.65822703      -6.21713198      -0.05225945      -0.03869164       0.05525982
O       -0.08667383     -12.23618834      -2.94165516      -0.05225807       0.03867215      -0.05524898
O       -3.34914812      -3.69342191      -7.52104873       0.05226197      -0.03869632      -0.05526637
O       -6.82612552      -9.40815095      -7.48319802      -0.00487214       0.05616827       0.04470052
O       -3.48134034      -6.52145930      -2.90380445       0.00487103      -0.05618514       0.04469335
O       -0.04551839      -1.44334582      -6.25498269       0.00487153       0.05617251      -0.04470286
O       -3.39030357     -14.48626443      -1.67558912      -0.00487074      -0.05619117      -0.04469040
O       -0.04551839      -6.52145930      -1.67558912       0.00487058      -0.05618797      -0.04469204
O       -3.39030357      -9.40815095      -6.25498269      -0.00487182       0.05616564      -0.04470432
O       -6.82612552     -14.48626443      -2.90380445      -0.00487076      -0.05619071       0.04469007
O       -3.48134034      -1.44334582      -7.48319802       0.00487192       0.05617565       0.04469949
O       -0.04147669     -10.58198752      -5.55212390      -0.04253716       0.00412825       0.00223383
O       -3.39434526      -5.34762273      -0.97273033       0.04253656      -0.00412822       0.00223181
O       -6.83016722      -2.61718240      -8.18605681       0.04253660       0.00413239      -0.00221768
O       -3.47729865     -13.31242785      -3.60666324      -0.04253693      -0.00413111      -0.00222260
O       -6.83016722      -5.34762273      -3.60666324       0.04253626      -0.00412965      -0.00223020
O       -3.47729865     -10.58198752      -8.18605681      -0.04253738       0.00413004      -0.00221854
O       -0.04147669     -13.31242785      -0.97273033      -0.04253728      -0.00412947       0.00222585
O       -3.39434526      -2.61718240      -5.55212390       0.04253617       0.00413227       0.00223595
O       -0.65802697     -13.72992605      -6.06323560      -0.04136243      -0.04738900      -0.00891612
O       -2.77779498      -2.19968420      -1.48384203       0.04136631       0.04739371      -0.00891444
O       -6.21361694      -5.76512093      -7.67494511       0.04136345      -0.04739505       0.00891155
O       -4.09384893     -10.16448932      -3.09555154      -0.04137430       0.04741129       0.00890297
O       -6.21361694      -2.19968420      -3.09555154       0.04136416       0.04739133       0.00891539
O       -4.09384893     -13.72992605      -7.67494511      -0.04136899      -0.04739341       0.00891282
O       -0.65802697     -10.16448932      -1.48384203      -0.04136974       0.04741260      -0.00890065
O       -2.77779498      -5.76512093      -6.06323560       0.04136354      -0.04739273      -0.00891440
O       -6.25824579     -14.09093085      -5.40009719       0.02243480       0.01206258      -0.03200532
O       -4.04922007      -1.83867940      -0.82070362      -0.02243724      -0.01206011      -0.03200784
O       -0.61339812      -6.12612572      -8.33808352      -0.02243462       0.01206124       0.03200616
O       -2.82242384      -9.80348453      -3.75868995       0.02243587      -0.01205957       0.03199656
O       -0.61339812      -1.83867940      -3.75868995      -0.02243578      -0.01206127       0.03200369
O       -2.82242384     -14.09093085      -8.33808352       0.02243918       0.01206002       0.03200469
O       -6.25824579      -9.80348453      -0.82070362       0.02243206      -0.01206133      -0.03200648
O       -4.04922007      -6.12612572      -5.40009719      -0.02243799       0.01206112      -0.03200462
O       -6.28405115     -15.51105130      -8.98381144      -0.03303233      -0.06712863      -0.01390687
O       -4.02341471      -0.41855895      -4.40441787       0.03303292       0.06712119      -0.01390818
O       -0.58759276      -7.54624617      -4.75436927       0.03303474      -0.06711842       0.01390910
O       -2.84822920      -8.38336408      -0.17497570      -0.03302592       0.06712240       0.01390442
O       -0.58759276      -0.41855895      -0.17497570       0.03303245       0.06712644       0.01390681
O       -2.84822920     -15.51105130      -4.75436927      -0.03303614      -0.06711452       0.01391241
O       -6.28405115      -8.38336408      -4.40441787      -0.03303382       0.06711766      -0.01390666
O       -4.02341471      -7.54624617      -8.98381144       0.03302735      -0.06712419      -0.01390514
96
Lattice="-6.8685476 0.0 0.0 0.0 0.0 -9.15739406 0.0 -15.92918335 0.0" Properties=species:S:1:pos:R:3:forces:R:3 e_per_atom_relaxed=-5.569216596145833 mp_id=mp-1001112 energy_per_atom=-5.482652107874553 ef_per_atom_relaxed=-5.569216596145833 corrected_total_energy=-5.482652107874553 ef_per_atom=-1.2535428863541669 task_id=mp-1001112 calc_id=0 ionic_step=31 energy=-526.334602355957 pbc="T T T"
Na      -5.13010000     -15.75337104      -6.72692809       0.03026661       0.04524723       0.00080229
Na      -5.17272140      -0.17581231      -2.14823106      -0.03026446      -0.04525106       0.00079993
Na      -1.73844760      -7.78877937      -7.00916300      -0.03026503       0.04525215      -0.00080089
Na      -1.69582620      -8.14040398      -2.43046597       0.03026544      -0.04524777      -0.00080054
Na      -1.73844760      -0.17581231      -2.43046597      -0.03026520      -0.04525056      -0.00080140
Na      -1.69582620     -15.75337104      -7.00916300       0.03026681       0.04524787      -0.00080200
Na      -5.13010000      -8.14040398      -2.14823106       0.03026538      -0.04524884       0.00080110
Na      -5.17272140      -7.78877937      -6.72692809      -0.03026403       0.04525111       0.00080033
Na      -5.20608448     -11.95104232      -9.14907118      -0.01507855      -0.01249953       0.01877086
Na      -5.09673692      -3.97814103      -4.57037415       0.01507969       0.01250119       0.01876760
Na      -1.66246312      -3.98645065      -4.58701991       0.01507934      -0.01250166      -0.01876691
Na      -1.77181068     -11.94273270      -0.00832288      -0.01507751       0.01250180      -0.01876846
Na      -1.66246312      -3.97814103      -0.00832288       0.01507936       0.01250167      -0.01876742
Na      -1.77181068     -11.95104232      -4.58701991      -0.01507857      -0.01250084      -0.01876719
Na      -5.20608448     -11.94273270      -4.57037415      -0.01507817       0.01250072       0.01876742
Na      -5.09673692      -3.98645065      -9.14907118       0.01507941      -0.01249894       0.01877077
H       -0.36198414     -12.92548558      -6.64242485       0.03957097       0.02680945      -0.02584678
H       -3.07228966      -3.00369777      -2.06372782      -0.03957069      -0.02680802      -0.02584541
H       -6.50656346      -4.96089391      -7.09366624      -0.03957102       0.02680874       0.02584577
H       -3.79625794     -10.96828944      -2.51496921       0.03957236      -0.02681053       0.02584743
H       -6.50656346      -3.00369777      -2.51496921      -0.03957005      -0.02680838       0.02584624
H       -3.79625794     -12.92548558      -7.09366624       0.03957129       0.02680838       0.02584487
H       -0.36198414     -10.96828944      -2.06372782       0.03957344      -0.02681494      -0.02584988
H       -3.07228966      -4.96089391      -6.64242485      -0.03957140       0.02680850      -0.02584743
H       -6.56292361     -14.27032489      -4.42678832       0.01173638      -0.03432548       0.03523421
H       -3.73989779      -1.65885846      -9.00548535      -0.01174228       0.03432176       0.03522122
H       -0.30562399      -6.30573321      -0.15190871      -0.01174179      -0.03432117      -0.03522003
H       -3.12864981      -9.62345014      -4.73060574       0.01173376       0.03432717      -0.03524017
H       -0.30562399      -1.65885846      -4.73060574      -0.01173532       0.03432535      -0.03524077
H       -3.12864981     -14.27032489      -0.15190871       0.01174116      -0.03432235      -0.03521991
H       -6.56292361      -9.62345014      -9.00548535       0.01174015       0.03432225       0.03522050
H       -3.73989779      -6.30573321      -4.42678832      -0.01173803      -0.03432548       0.03523386
H       -6.57481361     -14.62146589      -0.27000412      -0.01274578       0.01909733       0.02525651
H       -3.72800779      -1.30771746      -4.84870115       0.01274560      -0.01909876       0.02525735
H       -0.29373399      -6.65687422      -4.30869291       0.01274778       0.01910353      -0.02525413
H       -3.14053981      -9.27230913      -8.88738994      -0.01274502      -0.01909828      -0.02525759
H       -0.29373399      -1.30771746      -8.88738994       0.01274450      -0.01909339      -0.02525949
H       -3.14053981     -14.62146589      -4.30869291      -0.01274726       0.01910305      -0.02525347
H       -6.57481361      -9.27230913      -4.84870115      -0.01274715      -0.01910543       0.02525443
H       -3.72800779      -6.65687422      -0.27000412       0.01274510       0.01909673       0.02525759
C       -0.02801598     -10.54329198      -6.84983579      -0.00721857       0.02391465       0.02514713
C       -3.40625782      -5.38589137      -2.27113876       0.00721919      -0.02391303       0.02514195
C       -6.84053162      -2.57870031      -6.88625530       0.00721866       0.02391841      -0.02514782
C       -3.46228978     -13.35048304      -2.30755827      -0.00721898      -0.02391277      -0.02514453
C       -6.84053162      -5.38589137      -2.30755827       0.00721896      -0.02391379      -0.02514565
C       -3.46228978     -10.54329198      -6.88625530      -0.00721890       0.02391455      -0.02514690
C       -0.02801598     -13.35048304      -2.27113876      -0.00721885      -0.02391308       0.02514034
C       -3.40625782      -2.57870031      -6.84983579       0.00721823       0.02392114       0.02514447
O       -0.08609663     -11.65735804      -7.51920412      -0.04835898      -0.06739855      -0.07245391
O       -3.34817717      -4.27182531      -2.94050709       0.04836087       0.06739464      -0.07245344
O       -6.78245097      -3.69276636      -6.21688697       0.04835839      -0.06739679       0.07245252
O       -3.52037043     -12.23641699      -1.63818994      -0.04835960       0.06739816       0.07245421
O       -6.78245097      -4.27182531      -1.63818994       0.04835741       0.06740031       0.07245630
O       -3.52037043     -11.65735804      -6.21688697      -0.04836102      -0.06739858       0.07245395
O       -0.08609663     -12.23641699      -2.94050709      -0.04835943       0.06739607      -0.07245246
O       -3.34817717      -3.69276636      -7.51920412       0.04836006      -0.06739524      -0.07245362
O       -6.82339006      -9.40860337      -7.48295476      -0.00897983       0.07379950       0.04229121
O       -3.47943134      -6.52057998      -2.90425773       0.00897971      -0.07380103       0.04229143
O       -0.04515754      -1.44401169      -6.25313633       0.00897986       0.07379435      -0.04229678
O       -3.38911626     -14.48517166      -1.67443930      -0.00897826      -0.07380441      -0.04228570
O       -0.04515754      -6.52057998      -1.67443930       0.00897819      -0.07380648      -0.04228631
O       -3.38911626      -9.40860337      -6.25313633      -0.00897877       0.07379919      -0.04229346
O       -6.82339006     -14.48517166      -2.90425773      -0.00898024      -0.07380170       0.04228988
O       -3.47943134      -1.44401169      -7.48295476       0.00897928       0.07379202       0.04229754
O       -0.04200289     -10.58126684      -5.55155614      -0.04269563       0.00773773       0.03471231
O       -3.39227091      -5.34791651      -0.97285911       0.04269766      -0.00773641       0.03471503
O       -6.82654471      -2.61667516      -8.18453495       0.04269675       0.00773790      -0.03470969
O       -3.47627669     -13.31250819      -3.60583792      -0.04269698      -0.00773287      -0.03471929
O       -6.82654471      -5.34791651      -3.60583792       0.04269586      -0.00773636      -0.03471941
O       -3.47627669     -10.58126684      -8.18453495      -0.04269697       0.00773698      -0.03471178
O       -0.04200289     -13.31250819      -0.97285911      -0.04269592      -0.00773689       0.03471795
O       -3.39227091      -2.61667516      -5.55155614       0.04269754       0.00773779       0.03470978
O       -0.65678907     -13.72977936      -6.06311574      -0.06981376      -0.07228824       0.01148838
O       -2.77748473      -2.19940399      -1.48441871       0.06981257       0.07228863       0.01148562
O       -6.21175853      -5.76518768      -7.67297535       0.06981644      -0.07228610      -0.01148492
O       -4.09106287     -10.16399567      -3.09427832      -0.06981423       0.07229218      -0.01149101
O       -6.21175853      -2.19940399      -3.09427832       0.06981546       0.07228893      -0.01148596
O       -4.09106287     -13.72977936      -7.67297535      -0.06981432      -0.07228705      -0.01148561
O       -0.65678907     -10.16399567      -1.48441871      -0.06981564       0.07229578       0.01149370
O       -2.77748473      -5.76518768      -6.06311574       0.06981352      -0.07228625       0.01148649
O       -6.25613464     -14.09134506      -5.39974532       0.04077905       0.01737732      -0.05059613
O       -4.04668676      -1.83783829      -0.82104829      -0.04077500      -0.01737648      -0.05058294
O       -0.61241296      -6.12675338      -8.33634577      -0.04077664       0.01737431       0.05057801
O       -2.82186084      -9.80242997      -3.75764874       0.04077932      -0.01737982       0.05060722
O       -0.61241296      -1.83783829      -3.75764874      -0.04078299      -0.01737800       0.05060504
O       -2.82186084     -14.09134506      -8.33634577       0.04077417       0.01737496       0.05057954
O       -6.25613464      -9.80242997      -0.82104829       0.04077342      -0.01737612      -0.05058376
O       -4.04668676      -6.12675338      -5.39974532      -0.04078174       0.01737684      -0.05059630
O       -6.28194712     -15.50972399      -8.98031707      -0.03175831      -0.06809909      -0.02342132
O       -4.02087428      -0.41945936      -4.40162004       0.03175950       0.06810154      -0.02342427
O       -0.58660048      -7.54513231      -4.75577402       0.03175586      -0.06810489       0.02341950
O       -2.84767332      -8.38405104      -0.17707699      -0.03176287       0.06810218       0.02342281
O       -0.58660048      -0.41945936      -0.17707699       0.03175810       0.06809431       0.02342588
O       -2.84767332     -15.50972399      -4.75577402      -0.03175801      -0.06810898       0.02341849
O       -6.28194712      -8.38405104      -4.40162004      -0.03175452       0.06810656      -0.02341828
O       -4.02087428      -7.54513231      -8.98031707       0.03176528      -0.06810212      -0.02342448
96
Lattice="-6.86642312 0.0 0.0 0.0 0.0 -9.15737068 0.0 -15.93252391 0.0" Properties=species:S:1:pos:R:3:forces:R:3 e_per_atom_relaxed=-5.569216596145833 mp_id=mp-1001112 energy_per_atom=-5.482708056767781 ef_per_atom_relaxed=-5.569216596145833 corrected_total_energy=-5.482708056767781 ef_per_atom=-1.253515548229167 task_id=mp-1001112 calc_id=0 ionic_step=30 energy=-526.339973449707 pbc="T T T"
Na      -5.12727453     -15.75850713      -6.72728206       0.02188657       0.04721374      -0.01370907
Na      -5.17236015      -0.17401678      -2.14859672      -0.02188789      -0.04721501      -0.01370797
Na      -1.73914859      -7.79224518      -7.00877396      -0.02188668       0.04721221       0.01370852
Na      -1.69406297      -8.14027873      -2.43008862       0.02188675      -0.04721564       0.01370929
Na      -1.73914859      -0.17401678      -2.43008862      -0.02188666      -0.04721397       0.01370960
Na      -1.69406297     -15.75850713      -7.00877396       0.02188691       0.04721335       0.01370806
Na      -5.12727453      -8.14027873      -2.14859672       0.02188705      -0.04721542      -0.01370917
Na      -5.17236015      -7.79224518      -6.72728206      -0.02188813       0.04721430      -0.01370760
Na      -5.20462019     -11.95381134      -9.14923518      -0.01697162      -0.00655724       0.01791525
Na      -5.09501449      -3.97871257      -4.57054984       0.01697122       0.00655767       0.01791206
Na      -1.66180293      -3.98754939      -4.58682084       0.01697115      -0.00655795      -0.01791167
Na      -1.77140863     -11.94497452      -0.00813550      -0.01696967       0.00655916      -0.01791498
Na      -1.66180293      -3.97871257      -0.00813550       0.01697058       0.00655797      -0.01791319
Na      -1.77140863     -11.95381134      -4.58682084      -0.01697201      -0.00655894      -0.01791197
Na      -5.20462019     -11.94497452      -4.57054984      -0.01696889       0.00655887       0.01791394
Na      -5.09501449      -3.98754939      -9.14923518       0.01697111      -0.00655724       0.01791628
H       -0.36194447     -12.92755861      -6.64155680       0.03769492       0.02019250      -0.02788472
H       -3.07126709      -3.00496530      -2.06287146      -0.03769033      -0.02018225      -0.02787948
H       -6.50447865      -4.96129665      -7.09449922      -0.03768793       0.02017510       0.02787292
H       -3.79515603     -10.97122726      -2.51581388       0.03768490      -0.02016675       0.02786899
H       -6.50447865      -3.00496530      -2.51581388      -0.03769112      -0.02018332       0.02787900
H       -3.79515603     -12.92755861      -7.09449922       0.03769278       0.02018368       0.02787846
H       -0.36194447     -10.97122726      -2.06287146       0.03768516      -0.02016723      -0.02786922
H       -3.07126709      -4.96129665      -6.64155680      -0.03768853       0.02017975      -0.02787697
H       -6.56089462     -14.27267245      -4.42676154       0.02141187      -0.03011754       0.00738442
H       -3.73874006      -1.65985146      -9.00544688      -0.02141774       0.03011343       0.00736713
H       -0.30552850      -6.30641050      -0.15192380      -0.02141814      -0.03011429      -0.00736427
H       -3.12768306      -9.62611341      -4.73060914       0.02141386       0.03011499      -0.00737762
H       -0.30552850      -1.65985146      -4.73060914      -0.02141273       0.03011622      -0.00738108
H       -3.12768306     -14.27267245      -0.15192380       0.02141848      -0.03011198      -0.00736415
H       -6.56089462      -9.62611341      -9.00544688       0.02141687       0.03011378       0.00736988
H       -3.73874006      -6.30641050      -4.42676154      -0.02141385      -0.03011785       0.00738037
H       -6.57244353     -14.62423857      -0.27052210      -0.00834139       0.02075922       0.02826196
H       -3.72719115      -1.30828534      -4.84920744       0.00833780      -0.02075076       0.02826738
H       -0.29397959      -6.65797662      -4.30816324       0.00833604       0.02074838      -0.02826887
H       -3.13923197      -9.27454729      -8.88684858      -0.00833282      -0.02074206      -0.02827227
H       -0.29397959      -1.30828534      -8.88684858       0.00833634      -0.02074921      -0.02826750
H       -3.13923197     -14.62423857      -4.30816324      -0.00834192       0.02075982      -0.02826136
H       -6.57244353      -9.27454729      -4.84920744      -0.00833353      -0.02074349       0.02827221
H       -3.72719115      -6.65797662      -0.27052210       0.00833681       0.02075016       0.02826786
C       -0.02813249     -10.54491147      -6.85003268      -0.01122518      -0.01107056       0.00774863
C       -3.40507907      -5.38761244      -2.27134734       0.01122630       0.01107903       0.00773136
C       -6.83829063      -2.57864952      -6.88602334       0.01122578      -0.01108226      -0.00772237
C       -3.46134405     -13.35387439      -2.30733800      -0.01122388       0.01106972      -0.00774694
C       -6.83829063      -5.38761244      -2.30733800       0.01122490       0.01108276      -0.00774057
C       -3.46134405     -10.54491147      -6.88602334      -0.01122522      -0.01106910      -0.00772597
C       -0.02813249     -13.35387439      -2.27134734      -0.01122447       0.01106808       0.00773948
C       -3.40507907      -2.57864952      -6.85003268       0.01122577      -0.01108301       0.00774476
O       -0.08544124     -11.66100071      -7.51874271      -0.03688619      -0.00494713      -0.04091027
O       -3.34777032      -4.27152320      -2.94005737       0.03688508       0.00493059      -0.04090095
O       -6.78098188      -3.69473875      -6.21731331       0.03688370      -0.00492883       0.04089600
O       -3.51865280     -12.23778516      -1.63862797      -0.03688492       0.00494567       0.04090384
O       -6.78098188      -4.27152320      -1.63862797       0.03688262       0.00492981       0.04089806
O       -3.51865280     -11.66100071      -6.21731331      -0.03688740      -0.00494507       0.04090469
O       -0.08544124     -12.23778516      -2.94005737      -0.03688562       0.00494796      -0.04090735
O       -3.34777032      -3.69473875      -7.51874271       0.03688470      -0.00493035      -0.04090053
O       -6.82172422      -9.41055799      -7.48342658      -0.01273631       0.06230254       0.03874129
O       -3.47791046      -6.52196592      -2.90474124       0.01273671      -0.06229263       0.03874642
O       -0.04469890      -1.44429604      -6.25262944       0.01273733       0.06229387      -0.03874567
O       -3.38851266     -14.48822787      -1.67394410      -0.01273535      -0.06230104      -0.03874299
O       -0.04469890      -6.52196592      -1.67394410       0.01273657      -0.06229574      -0.03874572
O       -3.38851266      -9.41055799      -6.25262944      -0.01273559       0.06229632      -0.03874624
O       -6.82172422     -14.48822787      -2.90474124      -0.01273693      -0.06229818       0.03874454
O       -3.47791046      -1.44429604      -7.48342658       0.01273610       0.06229932       0.03874153
O       -0.04280796     -10.58168932      -5.55137585      -0.04214032       0.00234887       0.01220298
O       -3.39040360      -5.35083459      -0.97269051       0.04214293      -0.00234622       0.01220399
O       -6.82361516      -2.61542736      -8.18468017       0.04214324       0.00234354      -0.01221260
O       -3.47601952     -13.31709655      -3.60599483      -0.04214155      -0.00234205      -0.01219931
O       -6.82361516      -5.35083459      -3.60599483       0.04214184      -0.00234404      -0.01219708
O       -3.47601952     -10.58168932      -8.18468017      -0.04214226       0.00234747      -0.01221612
O       -0.04280796     -13.31709655      -0.97269051      -0.04214218      -0.00234345       0.01220629
O       -3.39040360      -2.61542736      -5.55137585       0.04214126       0.00234544       0.01219940
O       -0.65616350     -13.73362164      -6.06442002      -0.07940030      -0.07035866       0.01771993
O       -2.77704806      -2.19890227      -1.48573468       0.07939816       0.07035542       0.01771449
O       -6.21025962      -5.76735968      -7.67163600       0.07939291      -0.07034469      -0.01770861
O       -4.08937506     -10.16516423      -3.09295066      -0.07939270       0.07033518      -0.01770234
O       -6.21025962      -2.19890227      -3.09295066       0.07939428       0.07035422      -0.01771506
O       -4.08937506     -13.73362164      -7.67163600      -0.07940078      -0.07034773      -0.01771122
O       -0.65616350     -10.16516423      -1.48573468      -0.07939351       0.07033452       0.01770201
O       -2.77704806      -5.76735968      -6.06442002       0.07939708      -0.07035160       0.01771384
O       -6.25421215     -14.09586159      -5.40093573       0.03194654       0.02175722      -0.01820949
O       -4.04542253      -1.83666232      -0.82225039      -0.03194085      -0.02175638      -0.01819167
O       -0.61221097      -6.12959963      -8.33512029      -0.03193912       0.02175644       0.01818967
O       -2.82100059      -9.80292428      -3.75643495       0.03194493      -0.02175811       0.01819871
O       -0.61221097      -1.83666232      -3.75643495      -0.03194183      -0.02176014       0.01820636
O       -2.82100059     -14.09586159      -8.33512029       0.03194121       0.02175304       0.01818514
O       -6.25421215      -9.80292428      -0.82225039       0.03194255      -0.02175629      -0.01819286
O       -4.04542253      -6.12959963      -5.40093573      -0.03194433       0.02175930      -0.01820411
O       -6.28184614     -15.51154441      -8.97720271      -0.02197447      -0.06088426      -0.03111607
O       -4.01778854      -0.42097950      -4.39851737       0.02197391       0.06086956      -0.03112158
O       -0.58457698      -7.54528245      -4.75885331       0.02197647      -0.06086876       0.03112358
O       -2.84863458      -8.38724146      -0.18016797      -0.02197674       0.06086271       0.03112710
O       -0.58457698      -0.42097950      -0.18016797       0.02197805       0.06087210       0.03112161
O       -2.84863458     -15.51154441      -4.75885331      -0.02197075      -0.06088087       0.03111586
O       -6.28184614      -8.38724146      -4.39851737      -0.02198023       0.06086317      -0.03112853
O       -4.01778854      -7.54528245      -8.97720271       0.02197358      -0.06087165      -0.03112206
96
Lattice="-6.86444379 0.0 0.0 0.0 0.0 -9.15734889 0.0 -15.93563625 0.0" Properties=species:S:1:pos:R:3:forces:R:3 e_per_atom_relaxed=-5.569216596145833 mp_id=mp-1001112 energy_per_atom=-5.48274286588033 ef_per_atom_relaxed=-5.569216596145833 corrected_total_energy=-5.48274286588033 ef_per_atom=-1.2534733601041665 task_id=mp-1001112 calc_id=0 ionic_step=28 energy=-526.3433151245117 pbc="T T T"
Na      -5.12464248     -15.76329282      -6.72761184       0.01354304       0.04895480      -0.02825984
Na      -5.17202320      -0.17234343      -2.14893739      -0.01354307      -0.04895496      -0.02825579
Na      -1.73980131      -7.79547470      -7.00841150      -0.01354069       0.04895453       0.02825844
Na      -1.69242059      -8.14016155      -2.42973705       0.01354140      -0.04895529       0.02825937
Na      -1.73980131      -0.17234343      -2.42973705      -0.01354079      -0.04895709       0.02825930
Na      -1.69242059     -15.76329282      -7.00841150       0.01354232       0.04895391       0.02825885
Na      -5.12464248      -8.14016155      -2.14893739       0.01354323      -0.04895341      -0.02825593
Na      -5.17202320      -7.79547470      -6.72761184      -0.01354207       0.04895574      -0.02825904
Na      -5.20325588     -11.95639139      -9.14938804      -0.01873838      -0.00116529       0.01711173
Na      -5.09340981      -3.97924486      -4.57071360       0.01873884       0.00116641       0.01711418
Na      -1.66118791      -3.98857326      -4.58663529       0.01873918      -0.00116637      -0.01711251
Na      -1.77103398     -11.94706299      -0.00796085      -0.01873861       0.00116493      -0.01711249
Na      -1.66118791      -3.97924486      -0.00796085       0.01873946       0.00116584      -0.01711257
Na      -1.77103398     -11.95639139      -4.58663529      -0.01873747      -0.00116548      -0.01711358
Na      -5.20325588     -11.94706299      -4.57071360      -0.01873904       0.00116527       0.01711513
Na      -5.09340981      -3.98857326      -9.14938804       0.01873897      -0.00116622       0.01710959
H       -0.36190748     -12.92948986      -6.64074806       0.03600613       0.01383126      -0.02979797
H       -3.07031441      -3.00614639      -2.06207362      -0.03600379      -0.01382482      -0.02979362
H       -6.50253631      -4.96167174      -7.09527527      -0.03600662       0.01382959       0.02979785
H       -3.79412938     -10.97396451      -2.51660083       0.03600599      -0.01383018       0.02979726
H       -6.50253631      -3.00614639      -2.51660083      -0.03600412      -0.01382458       0.02979374
H       -3.79412938     -12.92948986      -7.09527527       0.03600574       0.01383066       0.02979821
H       -0.36190748     -10.97396451      -2.06207362       0.03600383      -0.01382649      -0.02979571
H       -3.07031441      -4.96167174      -6.64074806      -0.03600724       0.01383257      -0.02979875
H       -6.55900425     -14.27485962      -4.42673654       0.03042893      -0.02638584      -0.01868773
H       -3.73766143      -1.66077663      -9.00541098      -0.03042027       0.02639195      -0.01866305
H       -0.30543954      -6.30704149      -0.15193791      -0.03042018      -0.02639110       0.01866198
H       -3.12678236      -9.62859476      -4.73061235       0.03042649       0.02638698       0.01868236
H       -0.30543954      -1.66077663      -4.73061235      -0.03042606       0.02638839       0.01867926
H       -3.12678236     -14.27485962      -0.15193791       0.03041911      -0.02639189       0.01866043
H       -6.55900425      -9.62859476      -9.00541098       0.03042027       0.02639029      -0.01866472
H       -3.73766143      -6.30704149      -4.42673654      -0.03042981      -0.02638454      -0.01869118
H       -6.57023551     -14.62682173      -0.27100478      -0.00409704       0.02223074       0.03116786
H       -3.72643017      -1.30881452      -4.84967923       0.00409473      -0.02222216       0.03117311
H       -0.29420828      -6.65900360      -4.30766966       0.00409713       0.02222681      -0.03116935
H       -3.13801362      -9.27663265      -8.88634411      -0.00409740      -0.02222633      -0.03117037
H       -0.29420828      -1.30881452      -8.88634411       0.00409557      -0.02222574      -0.03117162
H       -3.13801362     -14.62682173      -4.30766966      -0.00409666       0.02222908      -0.03116906
H       -6.57023551      -9.27663265      -4.84967923      -0.00409533      -0.02222204       0.03117251
H       -3.72643017      -6.65900360      -0.27100478       0.00409934       0.02223015       0.03116781
C       -0.02824101     -10.54642032      -6.85021610      -0.01499190      -0.04386305      -0.00830419
C       -3.40398089      -5.38921593      -2.27154165       0.01498960       0.04384949      -0.00830090
C       -6.83620278      -2.57860219      -6.88580724       0.01499182      -0.04386145       0.00828929
C       -3.46046290     -13.35703406      -2.30713279      -0.01499074       0.04383961       0.00829585
C       -6.83620278      -5.38921593      -2.30713279       0.01499125       0.04384838       0.00829189
C       -3.46046290     -10.54642032      -6.88580724      -0.01499177      -0.04386409       0.00828310
C       -0.02824101     -13.35703406      -2.27154165      -0.01499032       0.04384154      -0.00830491
C       -3.40398089      -2.57860219      -6.85021610       0.01499166      -0.04386121      -0.00830990
O       -0.08483087     -11.66439476      -7.51831274      -0.02641732       0.05339718      -0.01167275
O       -3.34739103      -4.27124149      -2.93963830       0.02641509      -0.05340052      -0.01167197
O       -6.77961292      -3.69657663      -6.21771059       0.02641503       0.05340421       0.01167112
O       -3.51705276     -12.23905962      -1.63903615      -0.02641502      -0.05340484       0.01167347
O       -6.77961292      -4.27124149      -1.63903615       0.02641639      -0.05339849       0.01167456
O       -3.51705276     -11.66439476      -6.21771059      -0.02641689       0.05339214       0.01167478
O       -0.08483087     -12.23905962      -2.93963830      -0.02641363      -0.05340770      -0.01167128
O       -3.34739103      -3.69657663      -7.51831274       0.02641626       0.05340904      -0.01166721
O       -6.82017204      -9.41237909      -7.48386618      -0.01603961       0.05176356       0.03546497
O       -3.47649364      -6.52325716      -2.90519174       0.01604170      -0.05174888       0.03547090
O       -0.04427175      -1.44456096      -6.25215715       0.01604062       0.05175819      -0.03546703
O       -3.38795015     -14.49107529      -1.67348271      -0.01604268      -0.05173457      -0.03547831
O       -0.04427175      -6.52325716      -1.67348271       0.01604186      -0.05174733      -0.03547327
O       -3.38795015      -9.41237909      -6.25215715      -0.01603940       0.05176866      -0.03546348
O       -6.82017204     -14.49107529      -2.90519174      -0.01604103      -0.05173664       0.03547680
O       -3.47649364      -1.44456096      -7.48386618       0.01604202       0.05175207       0.03546917
O       -0.04355778     -10.58208252      -5.55120788      -0.04140504      -0.00228363      -0.00868982
O       -3.38866412      -5.35355373      -0.97253344       0.04140478       0.00228658      -0.00869903
O       -6.82088601      -2.61426439      -8.18481545       0.04140338      -0.00228217       0.00870398
O       -3.47577967     -13.32137186      -3.60614101      -0.04140487       0.00228557       0.00870928
O       -6.82088601      -5.35355373      -3.60614101       0.04140275       0.00228399       0.00870791
O       -3.47577967     -10.58208252      -8.18481545      -0.04140536      -0.00228208       0.00870255
O       -0.04355778     -13.32137186      -0.97253344      -0.04140464       0.00228599      -0.00870106
O       -3.38866412      -2.61426439      -5.55120788       0.04140534      -0.00228462      -0.00869140
O       -0.65558088     -13.73720161      -6.06563514      -0.08815843      -0.06897727       0.02336513
O       -2.77664102      -2.19843464      -1.48696070       0.08815747       0.06897250       0.02336284
O       -6.20886291      -5.76938348      -7.67038819       0.08815706      -0.06897840      -0.02336703
O       -4.08780277     -10.16625277      -3.09171375      -0.08816063       0.06898233      -0.02336796
O       -6.20886291      -2.19843464      -3.09171375       0.08815584       0.06897250      -0.02336227
O       -4.08780277     -13.73720161      -7.67038819      -0.08815905      -0.06897578      -0.02336522
O       -0.65558088     -10.16625277      -1.48696070      -0.08815777       0.06897861       0.02336708
O       -2.77664102      -5.76938348      -6.06563514       0.08816001      -0.06898078       0.02336682
O       -6.25242103     -14.10007007      -5.40204474       0.02301988       0.02606654       0.01160556
O       -4.04424465      -1.83556618      -0.82337030      -0.02302840      -0.02607170       0.01157859
O       -0.61202276      -6.13225194      -8.33397859      -0.02302700       0.02607140      -0.01157828
O       -2.82019914      -9.80338431      -3.75530415       0.02302080      -0.02606821      -0.01159909
O       -0.61202276      -1.83556618      -3.75530415      -0.02302012      -0.02606946      -0.01159479
O       -2.82019914     -14.10007007      -8.33397859       0.02302927       0.02607185      -0.01157583
O       -6.25242103      -9.80338431      -0.82337030       0.02302530      -0.02607077       0.01158260
O       -4.04424465      -6.13225194      -5.40204474      -0.02301913       0.02606657       0.01161035
O       -6.28175143     -15.51324022      -8.97430118      -0.01279715      -0.05390493      -0.03823563
O       -4.01491426      -0.42239603      -4.39562673       0.01280421       0.05389327      -0.03824243
O       -0.58269236      -7.54542210      -4.76172216       0.01280120      -0.05389690       0.03823796
O       -2.84952953      -8.39021415      -0.18304771      -0.01279813       0.05389521       0.03823656
O       -0.58269236      -0.42239603      -0.18304771       0.01279962       0.05389310       0.03823832
O       -2.84952953     -15.51324022      -4.76172216      -0.01280630      -0.05390295       0.03823748
O       -6.28175143      -8.39021415      -4.39562673      -0.01279905       0.05388951      -0.03824133
O       -4.01491426      -7.54542210      -8.97430118       0.01279524      -0.05390510      -0.03823549
96
Lattice="-6.86291168 0.0 0.0 0.0 0.0 -9.15608074 0.0 -15.93947771 0.0" Properties=species:S:1:pos:R:3:forces:R:3 e_per_atom_relaxed=-5.569216596145833 mp_id=mp-1001112 energy_per_atom=-5.482779582341512 ef_per_atom_relaxed=-5.569216596145833 corrected_total_energy=-5.482779582341512 ef_per_atom=-1.2534311303124994 task_id=mp-1001112 calc_id=0 ionic_step=22 energy=-526.3468399047852 pbc="T T T"
Na      -5.12238806     -15.76875937      -6.72707891       0.00383751       0.04644839      -0.04149924
Na      -5.17197946      -0.17071834      -2.14903854      -0.00383756      -0.04644898      -0.04149804
Na      -1.74052362      -7.79902051      -7.00704220      -0.00383703       0.04644856       0.04149920
Na      -1.69093222      -8.14045720      -2.42900183       0.00383845      -0.04644838       0.04149938
Na      -1.74052362      -0.17071834      -2.42900183      -0.00383629      -0.04644737       0.04149871
Na      -1.69093222     -15.76875937      -7.00704220       0.00383830       0.04644959       0.04149894
Na      -5.12238806      -8.14045720      -2.14903854       0.00383975      -0.04644790      -0.04149954
Na      -5.17197946      -7.79902051      -6.72707891      -0.00383706       0.04644920      -0.04149853
Na      -5.20219899     -11.95949214      -9.14826767      -0.02184593       0.00662996       0.01128094
Na      -5.09216853      -3.97998557      -4.57022730       0.02184682      -0.00663058       0.01128086
Na      -1.66071269      -3.98975328      -4.58585344       0.02184571       0.00663066      -0.01127993
Na      -1.77074315     -11.94972443      -0.00781307      -0.02184726      -0.00663167      -0.01127979
Na      -1.66071269      -3.97998557      -0.00781307       0.02184623      -0.00663224      -0.01128069
Na      -1.77074315     -11.95949214      -4.58585344      -0.02184556       0.00663075      -0.01128080
Na      -5.20219899     -11.94972443      -4.57022730      -0.02184781      -0.00663078       0.01127955
Na      -5.09216853      -3.98975328      -9.14826767       0.02184628       0.00662999       0.01127972
H       -0.36138659     -12.93106850      -6.63947829       0.01275899      -0.04963744       0.00209206
H       -3.07006925      -3.00840921      -2.06143792      -0.01275942       0.04963636       0.00209391
H       -6.50152509      -4.96132964      -7.09464282      -0.01275703      -0.04964757      -0.00210017
H       -3.79284243     -10.97814807      -2.51660245       0.01275925       0.04963899      -0.00209504
H       -6.50152509      -3.00840921      -2.51660245      -0.01276059       0.04963815      -0.00209427
H       -3.79284243     -12.93106850      -7.09464282       0.01275624      -0.04964459      -0.00209939
H       -0.36138659     -10.97814807      -2.06143792       0.01275850       0.04963934       0.00209534
H       -3.07006925      -4.96132964      -6.63947829      -0.01275882      -0.04963803       0.00209206
H       -6.55758115     -14.27740477      -4.42662956       0.02845386      -0.03268495      -0.00900400
H       -3.73678637      -1.66207294      -9.00466993      -0.02845593       0.03268311      -0.00901330
H       -0.30533053      -6.30766592      -0.15141081      -0.02846277      -0.03267841       0.00903273
H       -3.12612531      -9.63181179      -4.72945118       0.02845553       0.03268367       0.00900829
H       -0.30533053      -1.66207294      -4.72945118      -0.02845502       0.03268517       0.00900865
H       -3.12612531     -14.27740477      -0.15141081       0.02846316      -0.03267793       0.00903273
H       -6.55758115      -9.63181179      -9.00466993       0.02845401       0.03268376      -0.00900578
H       -3.73678637      -6.30766592      -4.42662956      -0.02845576      -0.03268306      -0.00901246
H       -6.56836924     -14.62971696      -0.27153685       0.00574119       0.01054275       0.03791952
H       -3.72599828      -1.30976075      -4.84957722      -0.00573647      -0.01055455       0.03791261
H       -0.29454244      -6.65997810      -4.30650352      -0.00573817       0.01055193      -0.03791285
H       -3.13691340      -9.27949961      -8.88454389       0.00574382      -0.01053345      -0.03792286
H       -0.29454244      -1.30976075      -8.88454389      -0.00574172      -0.01054370      -0.03791684
H       -3.13691340     -14.62971696      -4.30650352       0.00574107       0.01054406      -0.03791863
H       -6.56836924      -9.27949961      -4.84957722       0.00574136      -0.01054108       0.03791875
H       -3.72599828      -6.65997810      -0.27153685      -0.00573656       0.01055646       0.03791279
C       -0.02829771     -10.55038780      -6.85037250      -0.01393381       0.04095298       0.01257082
C       -3.40315813      -5.38908991      -2.27233213       0.01393236      -0.04097593       0.01258219
C       -6.83461397      -2.58064894      -6.88374861       0.01393253       0.04098035      -0.01257285
C       -3.45975355     -13.35882877      -2.30570824      -0.01393137      -0.04099712      -0.01258280
C       -6.83461397      -5.38908991      -2.30570824       0.01393242      -0.04097559      -0.01258013
C       -3.45975355     -10.55038780      -6.88374861      -0.01393376       0.04095602      -0.01257841
C       -0.02829771     -13.35882877      -2.27233213      -0.01393181      -0.04099915       0.01258353
C       -3.40315813      -2.58064894      -6.85037250       0.01393156       0.04097503       0.01256629
O       -0.08420230     -11.66756060      -7.51622338      -0.02267590       0.02897733      -0.03305063
O       -3.34725354      -4.27191711      -2.93818301       0.02267715      -0.02896306      -0.03305864
O       -6.77870938      -3.69782175      -6.21789773       0.02267585       0.02896756       0.03305830
O       -3.51565814     -12.24165596      -1.63985736      -0.02267584      -0.02895358       0.03306808
O       -6.77870938      -4.27191711      -1.63985736       0.02267590      -0.02896279       0.03306149
O       -3.51565814     -11.66756060      -6.21789773      -0.02267609       0.02896777       0.03305764
O       -0.08420230     -12.24165596      -2.93818301      -0.02267680      -0.02895367      -0.03306664
O       -3.34725354      -3.69782175      -7.51622338       0.02267601       0.02897659      -0.03305115
O       -6.81906557      -9.41395723      -7.48260418      -0.02166231       0.01396586       0.04868226
O       -3.47530195      -6.52552048      -2.90456381       0.02166279      -0.01395555       0.04868738
O       -0.04384611      -1.44421837      -6.25151693       0.02166361       0.01394719      -0.04869044
O       -3.38760973     -14.49525934      -1.67347656      -0.02166216      -0.01394699      -0.04868941
O       -0.04384611      -6.52552048      -1.67347656       0.02166158      -0.01395541      -0.04868563
O       -3.38760973      -9.41395723      -6.25151693      -0.02166224       0.01396871      -0.04868126
O       -6.81906557     -14.49525934      -2.90456381      -0.02166376      -0.01394451       0.04869330
O       -3.47530195      -1.44421837      -7.48260418       0.02166298       0.01394645       0.04868981
O       -0.04438389     -10.58225129      -5.55080171      -0.03631650      -0.00282171      -0.01111054
O       -3.38707195      -5.35722642      -0.97276134       0.03631587       0.00282368      -0.01112148
O       -6.81852779      -2.61251244      -8.18331940       0.03631556      -0.00282234       0.01111153
O       -3.47583973     -13.32696527      -3.60527903      -0.03631471       0.00281891       0.01111773
O       -6.81852779      -5.35722642      -3.60527903       0.03631555       0.00282031       0.01111826
O       -3.47583973     -10.58225129      -8.18331940      -0.03631585      -0.00281993       0.01110992
O       -0.04438389     -13.32696527      -0.97276134      -0.03631534       0.00282148      -0.01111954
O       -3.38707195      -2.61251244      -5.55080171       0.03631647      -0.00282621      -0.01111400
O       -0.65707658     -13.74211694      -6.06618641      -0.03589192      -0.01472086       0.00661346
O       -2.77437926      -2.19736077      -1.48814604       0.03589171       0.01471856       0.00661281
O       -6.20583510      -5.77237809      -7.66793470       0.03588995      -0.01470971      -0.00660501
O       -4.08853242     -10.16709962      -3.08989433      -0.03589311       0.01471928      -0.00661241
O       -6.20583510      -2.19736077      -3.08989433       0.03589079       0.01471809      -0.00661211
O       -4.08853242     -13.74211694      -7.66793470      -0.03589377      -0.01471108      -0.00660359
O       -0.65707658     -10.16709962      -1.48814604      -0.03589076       0.01472032       0.00661275
O       -2.77437926      -5.77237809      -6.06618641       0.03589067      -0.01472029       0.00661458
O       -6.24946208     -14.10554500      -5.40140963      -0.00776392       0.04194313      -0.02139264
O       -4.04490544      -1.83393271      -0.82336926       0.00776613      -0.04193985      -0.02137844
O       -0.61344960      -6.13580615      -8.33271148       0.00777218       0.04193804       0.02135413
O       -2.81800624      -9.80367156      -3.75467111      -0.00776413      -0.04194179       0.02138832
O       -0.61344960      -1.83393271      -3.75467111       0.00776404      -0.04194161       0.02138793
O       -2.81800624     -14.10554500      -8.33271148      -0.00776976       0.04193699       0.02135203
O       -6.24946208      -9.80367156      -0.82336926      -0.00776589      -0.04194212      -0.02138796
O       -4.04490544      -6.13580615      -5.40140963       0.00776729       0.04194093      -0.02138325
O       -6.28264714     -15.51619197      -8.97020717       0.01327628      -0.01585164      -0.05259621
O       -4.01172038      -0.42328574      -4.39216680      -0.01328385       0.01586476      -0.05258751
O       -0.58026454      -7.54645311      -4.76391394      -0.01327646      -0.01586687       0.05258766
O       -2.85119130      -8.39302460      -0.18587357       0.01327232       0.01584363       0.05260110
O       -0.58026454      -0.42328574      -0.18587357      -0.01327533       0.01585425       0.05259413
O       -2.85119130     -15.51619197      -4.76391394       0.01328069      -0.01584964       0.05259493
O       -6.28264714      -8.39302460      -4.39216680       0.01327264       0.01585457      -0.05259582
O       -4.01172038      -7.54645311      -8.97020717      -0.01327941      -0.01586939      -0.05258819
96
Lattice="-6.86531605 0.0 0.0 0.0 0.0 -9.15284347 0.0 -15.9386512 0.0" Properties=species:S:1:pos:R:3:forces:R:3 e_per_atom_relaxed=-5.569216596145833 mp_id=mp-1001112 energy_per_atom=-5.482656558354695 ef_per_atom_relaxed=-5.569216596145833 corrected_total_energy=-5.482656558354695 ef_per_atom=-1.2533796322916662 task_id=mp-1001112 calc_id=0 ionic_step=17 energy=-526.3350296020508 pbc="T T T"
Na      -5.12381508     -15.76852905      -6.72481541       0.00287521       0.03960156      -0.04233575
Na      -5.17415899      -0.17012215      -2.14839368      -0.00287186      -0.03959981      -0.04233798
Na      -1.74150097      -7.79920345      -7.00444979      -0.00287300       0.03960125       0.04233513
Na      -1.69115706      -8.13944775      -2.42802806       0.00287019      -0.03960039       0.04233757
Na      -1.74150097      -0.17012215      -2.42802806      -0.00287406      -0.03960022       0.04233456
Na      -1.69115706     -15.76852905      -7.00444979       0.00287156       0.03960015       0.04233809
Na      -5.12381508      -8.13944775      -2.14839368       0.00286977      -0.03960028      -0.04233914
Na      -5.17415899      -7.79920345      -6.72481541      -0.00287344       0.03960140      -0.04233568
Na      -5.20405442     -11.95895680      -9.14509724      -0.02363684       0.00436491       0.01162350
Na      -5.09391965      -3.97969440      -4.56867550       0.02363553      -0.00436541       0.01161930
Na      -1.66126163      -3.98963120      -4.58416797       0.02363553       0.00436504      -0.01161987
Na      -1.77139640     -11.94902000      -0.00774623      -0.02363597      -0.00436465      -0.01162097
Na      -1.66126163      -3.97969440      -0.00774623       0.02363749      -0.00436628      -0.01161997
Na      -1.77139640     -11.95895680      -4.58416797      -0.02363640       0.00436401      -0.01162104
Na      -5.20405442     -11.94902000      -4.56867550      -0.02363579      -0.00436419       0.01161994
Na      -5.09391965      -3.98963120      -9.14509724       0.02363633       0.00436709       0.01162319
H       -0.36140877     -12.92979455      -6.63675829       0.01321504      -0.04934037      -0.00323069
H       -3.07124925      -3.00885665      -2.06033655      -0.01321665       0.04933679      -0.00323260
H       -6.50390728      -4.96046895      -7.09250692      -0.01321374      -0.04934585       0.00322628
H       -3.79406680     -10.97818225      -2.51608518       0.01321830       0.04933321       0.00323260
H       -6.50390728      -3.00885665      -2.51608518      -0.01321827       0.04933500       0.00323272
H       -3.79406680     -12.92979455      -7.09250692       0.01321637      -0.04933786       0.00323260
H       -0.36140877     -10.97818225      -2.06033655       0.01321746       0.04933560      -0.00323123
H       -3.07124925      -4.96046895      -6.63675829      -0.01321222      -0.04934919      -0.00322402
H       -6.55982775     -14.27593541      -4.42516862       0.01895145      -0.04254531       0.02420354
H       -3.73814633      -1.66271579      -9.00159035      -0.01894775       0.04254743       0.02421296
H       -0.30548830      -6.30660981      -0.15125312      -0.01894744      -0.04254884      -0.02421677
H       -3.12716972      -9.63204139      -4.72767485       0.01895416       0.04254260      -0.02419555
H       -0.30548830      -1.66271579      -4.72767485      -0.01895513       0.04254360      -0.02419269
H       -3.12716972     -14.27593541      -0.15125312       0.01894484      -0.04254868      -0.02421963
H       -6.55982775      -9.63204139      -9.00159035       0.01894796       0.04254697       0.02421331
H       -3.73814633      -6.30660981      -4.42516862      -0.01895368      -0.04254521       0.02420056
H       -6.57020117     -14.62870988      -0.27199468       0.00138339       0.00930274       0.03808898
H       -3.72777290      -1.30994132      -4.84841642      -0.00138187      -0.00930417       0.03808802
H       -0.29511488      -6.65938428      -4.30442705      -0.00138070       0.00930893      -0.03808647
H       -3.13754315      -9.27926692      -8.88084879       0.00139077      -0.00928295      -0.03810006
H       -0.29511488      -1.30994132      -8.88084879      -0.00138275      -0.00929999      -0.03809112
H       -3.13754315     -14.62870988      -4.30442705       0.00138079       0.00930834      -0.03808630
H       -6.57020117      -9.27926692      -4.84841642       0.00138979      -0.00928664       0.03809768
H       -3.72777290      -6.65938428      -0.27199468      -0.00138347       0.00930190       0.03808916
C       -0.02818068     -10.54815537      -6.84809872      -0.02086107      -0.07485000      -0.00826572
C       -3.40447734      -5.39049583      -2.27167699       0.02086113       0.07485782      -0.00826033
C       -6.83713537      -2.57882977      -6.88116648       0.02086128      -0.07487150       0.00826135
C       -3.46083871     -13.35982143      -2.30474475      -0.02086226       0.07486862       0.00825349
C       -6.83713537      -5.39049583      -2.30474475       0.02086169       0.07485810       0.00825880
C       -3.46083871     -10.54815537      -6.88116648      -0.02086113      -0.07485039       0.00826560
C       -0.02818068     -13.35982143      -2.27167699      -0.02086182       0.07487138      -0.00825305
C       -3.40447734      -2.57882977      -6.84809872       0.02086114      -0.07487146      -0.00826143
O       -0.08412690     -11.66725334      -7.51306662      -0.02435821       0.02781516      -0.03821963
O       -3.34853113      -4.27139786      -2.93664489       0.02435857      -0.02780411      -0.03822258
O       -6.78118915      -3.69792774      -6.21619858       0.02435992       0.02781272       0.03821583
O       -3.51678492     -12.24072346      -1.63977685      -0.02435979      -0.02779859       0.03822277
O       -6.78118915      -4.27139786      -1.63977685       0.02435945      -0.02780378       0.03822370
O       -3.51678492     -11.66725334      -6.21619858      -0.02435815       0.02781576       0.03821941
O       -0.08412690     -12.24072346      -2.93664489      -0.02435936      -0.02779952      -0.03822247
O       -3.34853113      -3.69792774      -7.51306662       0.02435799       0.02781284      -0.03821552
O       -6.82165841      -9.41524051      -7.47867875      -0.01297440       0.15047032      -0.02633488
O       -3.47631567      -6.52341069      -2.90225701       0.01297228      -0.15048519      -0.02634314
O       -0.04365764      -1.44591491      -6.25058646       0.01297235       0.15048918       0.02634694
O       -3.38900038     -14.49273629      -1.67416472      -0.01297157      -0.15050107       0.02635294
O       -0.04365764      -6.52341069      -1.67416472       0.01297387      -0.15048513       0.02634266
O       -3.38900038      -9.41524051      -6.25058646      -0.01297279       0.15047018       0.02633701
O       -6.82165841     -14.49273629      -2.90225701      -0.01297323      -0.15050513      -0.02635430
O       -3.47631567      -1.44591491      -7.47867875       0.01297186       0.15049016      -0.02634433
O       -0.04460478     -10.58076458      -5.55069259      -0.03584480      -0.01514119       0.10392019
O       -3.38805324      -5.35788662      -0.97427085       0.03584677       0.01514384       0.10392457
O       -6.82071127      -2.61143898      -8.17857262       0.03584742      -0.01514724      -0.10392061
O       -3.47726281     -13.32721222      -3.60215088      -0.03584616       0.01514640      -0.10392913
O       -6.82071127      -5.35788662      -3.60215088       0.03584655       0.01514575      -0.10392517
O       -3.47726281     -10.58076458      -8.17857262      -0.03584518      -0.01514211      -0.10391966
O       -0.04460478     -13.32721222      -0.97427085      -0.03584623       0.01514512       0.10392883
O       -3.38805324      -2.61143898      -5.55069259       0.03584621      -0.01514611       0.10392103
O       -0.65870511     -13.74163277      -6.06505264       0.00082666      -0.02574649       0.03011103
O       -2.77395292      -2.19701843      -1.48863091      -0.00082752       0.02574563       0.03010971
O       -6.20661094      -5.77230717      -7.66421256      -0.00082704      -0.02573276      -0.03009970
O       -4.09136313     -10.16634403      -3.08779083       0.00082529       0.02574676      -0.03010695
O       -6.20661094      -2.19701843      -3.08779083      -0.00082111       0.02574658      -0.03010850
O       -4.09136313     -13.74163277      -7.66421256       0.00082678      -0.02575037      -0.03011128
O       -0.65870511     -10.16634403      -1.48863091       0.00082862       0.02574405       0.03010758
O       -2.77395292      -5.77230717      -6.06505264      -0.00083065      -0.02573076       0.03009972
O       -6.25037019     -14.10580306      -5.39865892      -0.03264561       0.05955610      -0.08746935
O       -4.04760388      -1.83284814      -0.82223718       0.03264210      -0.05955836      -0.08748019
O       -0.61494586      -6.13647746      -8.33060629       0.03263444       0.05955705       0.08748179
O       -2.81771217      -9.80217374      -3.75418455      -0.03264600      -0.05955428       0.08745894
O       -0.61494586      -1.83284814      -3.75418455       0.03264573      -0.05955335       0.08745551
O       -2.81771217     -14.10580306      -8.33060629      -0.03263938       0.05955938       0.08748710
O       -6.25037019      -9.80217374      -0.82223718      -0.03264159      -0.05955783      -0.08747973
O       -4.04760388      -6.13647746      -5.39865892       0.03264478       0.05955505      -0.08746529
O       -6.28608576     -15.51527711      -8.96638705       0.03403935      -0.00893355      -0.05680338
O       -4.01188831      -0.42337409      -4.38996532      -0.03403932       0.00893876      -0.05680087
O       -0.57923029      -7.54595151      -4.76287815      -0.03404552      -0.00893686       0.05679601
O       -2.85342774      -8.39269969      -0.18645642       0.03403527       0.00890900       0.05681697
O       -0.57923029      -0.42337409      -0.18645642      -0.03403997       0.00893620       0.05680367
O       -2.85342774     -15.51527711      -4.76287815       0.03403929      -0.00894167       0.05679652
O       -6.28608576      -8.39269969      -4.38996532       0.03403983       0.00890837      -0.05681336
O       -4.01188831      -7.54595151      -8.96638705      -0.03403935      -0.00893074      -0.05680165
96
Lattice="-6.88195144 0.0 0.0 0.0 0.0 -9.15593344 0.0 -15.9495731 0.0" Properties=species:S:1:pos:R:3:forces:R:3 e_per_atom_relaxed=-5.569216596145833 mp_id=mp-1001112 energy_per_atom=-5.482599496841431 ef_per_atom_relaxed=-5.569216596145833 corrected_total_energy=-5.482599496841431 ef_per_atom=-1.253338203333333 task_id=mp-1001112 calc_id=0 ionic_step=14 energy=-526.3295516967773 pbc="T T T"
Na      -5.13664575     -15.77837325      -6.72660207       0.02015571       0.06076959      -0.05589177
Na      -5.18628141      -0.17119985      -2.14863535      -0.02015546      -0.06077197      -0.05589250
Na      -1.74530569      -7.80358670      -7.00729809      -0.02015509       0.06077111       0.05589123
Na      -1.69567003      -8.14598640      -2.42933137       0.02015617      -0.06077093       0.05589179
Na      -1.74530569      -0.17119985      -2.42933137      -0.02015662      -0.06077160       0.05589137
Na      -1.69567003     -15.77837325      -7.00729809       0.02015582       0.06077011       0.05589177
Na      -5.13664575      -8.14598640      -2.14863535       0.02015598      -0.06077021      -0.05589153
Na      -5.18628141      -7.80358670      -6.72660207      -0.02015573       0.06076965      -0.05589066
Na      -5.21670879     -11.96703169      -9.14799103      -0.03047951       0.00006299       0.00897786
Na      -5.10621837      -3.98254141      -4.57002431       0.03048026      -0.00006105       0.00897771
Na      -1.66524265      -3.99224514      -4.58590913       0.03048130       0.00006350      -0.00897928
Na      -1.77573307     -11.95732796      -0.00794241      -0.03048029      -0.00006145      -0.00897601
Na      -1.66524265      -3.98254141      -0.00794241       0.03048036      -0.00006172      -0.00897637
Na      -1.77573307     -11.96703169      -4.58590913      -0.03048024       0.00006383      -0.00898021
Na      -5.21670879     -11.95732796      -4.57002431      -0.03048032      -0.00006215       0.00897664
Na      -5.10621837      -3.99224514      -9.14799103       0.03048082       0.00006281       0.00897689
H       -0.36306726     -12.93746512      -6.63867123       0.01191643      -0.05582237      -0.00838262
H       -3.07790846      -3.01210798      -2.06070451      -0.01192297       0.05580473      -0.00839543
H       -6.51888418      -4.96267857      -7.09522893      -0.01192326      -0.05580795       0.00839299
H       -3.80404298     -10.98689453      -2.51726221       0.01192505       0.05579913       0.00839895
H       -6.51888418      -3.01210798      -2.51726221      -0.01192373       0.05580533       0.00839496
H       -3.80404298     -12.93746512      -7.09522893       0.01191971      -0.05581415       0.00838882
H       -0.36306726     -10.98689453      -2.06070451       0.01192560       0.05579901      -0.00839925
H       -3.07790846      -4.96267857      -6.63867123      -0.01192104      -0.05581069      -0.00839198
H       -6.57543242     -14.28378485      -4.42416352       0.02682833      -0.05191426       0.00707531
H       -3.74749474      -1.66578825      -9.00213024      -0.02682583       0.05191767       0.00708282
H       -0.30651902      -6.30899830      -0.15380320      -0.02682491      -0.05191681      -0.00708687
H       -3.13445670      -9.64057480      -4.73176992       0.02682903       0.05191342      -0.00707161
H       -0.30651902      -1.66578825      -4.73176992      -0.02682860       0.05191599      -0.00707614
H       -3.13445670     -14.28378485      -0.15380320       0.02682610      -0.05191582      -0.00708139
H       -6.57543242      -9.64057480      -9.00213024       0.02682407       0.05191655       0.00708687
H       -3.74749474      -6.30899830      -4.42416352      -0.02682966      -0.05191322       0.00707197
H       -6.58447661     -14.63818197      -0.27417470      -0.02793211       0.02132201       0.04332465
H       -3.73845055      -1.31139113      -4.85214142       0.02793379      -0.02132559       0.04332197
H       -0.29747483      -6.66339542      -4.30379202       0.02793323       0.02132332      -0.04332411
H       -3.14350089      -9.28617768      -8.88175874      -0.02793324      -0.02132177      -0.04332376
H       -0.29747483      -1.31139113      -8.88175874       0.02793194      -0.02132344      -0.04332316
H       -3.14350089     -14.63818197      -4.30379202      -0.02793276       0.02132285      -0.04332477
H       -6.58447661      -9.28617768      -4.85214142      -0.02793317      -0.02132237       0.04332364
H       -3.73845055      -6.66339542      -0.27417470       0.02793273       0.02132118       0.04332387
C       -0.02799289     -10.55635782      -6.85117486      -0.02087558      -0.05336011       0.01733486
C       -3.41298283      -5.39321528      -2.27320814       0.02087505       0.05332955       0.01732988
C       -6.85395855      -2.58157127      -6.88272530       0.02087496      -0.05332832      -0.01733893
C       -3.46896861     -13.36800183      -2.30475858      -0.02087540       0.05333851      -0.01732931
C       -6.85395855      -5.39321528      -2.30475858       0.02087514       0.05333016      -0.01733364
C       -3.46896861     -10.55635782      -6.88272530      -0.02087538      -0.05335958      -0.01734263
C       -0.02799289     -13.36800183      -2.27320814      -0.02087493       0.05333901       0.01732602
C       -3.41298283      -2.58157127      -6.85117486       0.02087514      -0.05333057       0.01733356
O       -0.08506395     -11.67505449      -7.51524858      -0.03868999       0.00630879      -0.05657341
O       -3.35591177      -4.27451861      -2.93728186       0.03868879      -0.00630453      -0.05658226
O       -6.79688749      -3.70026794      -6.21865158       0.03868930       0.00629744       0.05658729
O       -3.52603967     -12.24930516      -1.64068486      -0.03868768      -0.00631621       0.05657872
O       -6.79688749      -4.27451861      -1.64068486       0.03868907      -0.00630367       0.05658295
O       -3.52603967     -11.67505449      -6.21865158      -0.03868889       0.00630108       0.05658144
O       -0.08506395     -12.24930516      -2.93728186      -0.03868753      -0.00631523      -0.05657740
O       -3.35591177      -3.70026794      -7.51524858       0.03869044       0.00630331      -0.05658042
O       -6.83777867      -9.42279486      -7.48034983      -0.00131483       0.16964085      -0.04833595
O       -3.48514849      -6.52677824      -2.90238311       0.00131552      -0.16962247      -0.04832628
O       -0.04417277      -1.44800831      -6.25355033       0.00131421       0.16962427       0.04832882
O       -3.39680295     -14.50156479      -1.67558361      -0.00131506      -0.16961510       0.04832380
O       -0.04417277      -6.52677824      -1.67558361       0.00131509      -0.16962111       0.04832505
O       -3.39680295      -9.42279486      -6.25355033      -0.00131246       0.16964979       0.04834126
O       -6.83777867     -14.50156479      -2.90238311      -0.00131549      -0.16961649      -0.04832366
O       -3.48514849      -1.44800831      -7.48034983       0.00131628       0.16961832      -0.04832265
O       -0.04382344     -10.58728420      -5.55363956      -0.03689562      -0.01285073       0.12252244
O       -3.39715228      -5.36228890      -0.97567284       0.03689503       0.01285130       0.12252754
O       -6.83812800      -2.61249765      -8.18026060       0.03689410      -0.01284701      -0.12252492
O       -3.48479916     -13.33707545      -3.60229388      -0.03689620       0.01284814      -0.12251803
O       -6.83812800      -5.36228890      -3.60229388       0.03689449       0.01284850      -0.12252030
O       -3.48479916     -10.58728420      -8.18026060      -0.03689510      -0.01284972      -0.12252754
O       -0.04382344     -13.33707545      -0.97567284      -0.03689446       0.01284978       0.12252593
O       -3.39715228      -2.61249765      -5.55363956       0.03689514      -0.01284805       0.12251684
O       -0.65928352     -13.75020273      -6.06695561       0.00764781      -0.03141305       0.02453132
O       -2.78169220      -2.19937037      -1.48898889      -0.00764623       0.03143728       0.02454974
O       -6.22266792      -5.77541618      -7.66694455      -0.00764993      -0.03143218      -0.02454761
O       -4.10025924     -10.17415692      -3.08897783       0.00764540       0.03144261      -0.02455158
O       -6.22266792      -2.19937037      -3.08897783      -0.00764754       0.03143778      -0.02455037
O       -4.10025924     -13.75020273      -7.66694455       0.00764802      -0.03142431      -0.02453977
O       -0.65928352     -10.17415692      -1.48898889       0.00764173       0.03144178       0.02455114
O       -2.78169220      -5.77541618      -6.06695561      -0.00764847      -0.03142780       0.02454416
O       -6.26653417     -14.11492481      -5.39906992      -0.04194596       0.05892119      -0.07572939
O       -4.05639299      -1.83464829      -0.82110320       0.04194900      -0.05892608      -0.07574113
O       -0.61541727      -6.14013826      -8.33483024       0.04194897       0.05892551       0.07574357
O       -2.82555845      -9.80943484      -3.75686352      -0.04195288      -0.05892172       0.07572921
O       -0.61541727      -1.83464829      -3.75686352       0.04195371      -0.05892524       0.07573405
O       -2.82555845     -14.11492481      -8.33483024      -0.04194725       0.05892298       0.07573672
O       -6.26653417      -9.80943484      -0.82110320      -0.04194534      -0.05892503      -0.07574463
O       -4.05639299      -6.14013826      -5.39906992       0.04195154       0.05892202      -0.07572661
O       -6.30189942     -15.52640748      -8.97219656       0.02556396       0.00073145      -0.04649478
O       -4.02102774      -0.42316562      -4.39422984      -0.02556595      -0.00073010      -0.04649502
O       -0.58005202      -7.55162093      -4.76170360      -0.02556670       0.00073349       0.04649678
O       -2.86092370      -8.39795217      -0.18373688       0.02556679      -0.00073471       0.04649627
O       -0.58005202      -0.42316562      -0.18373688      -0.02556568      -0.00073210       0.04649734
O       -2.86092370     -15.52640748      -4.76170360       0.02556512       0.00073013       0.04649612
O       -6.30189942      -8.39795217      -4.39422984       0.02556536      -0.00073531      -0.04649696
O       -4.02102774      -7.55162093      -8.97219656      -0.02556661       0.00073433      -0.04649690
96
Lattice="-6.84101027 0.0 0.0 0.0 0.0 -9.14832874 0.0 -15.92269335 0.0" Properties=species:S:1:pos:R:3:forces:R:3 e_per_atom_relaxed=-5.569216596145833 mp_id=mp-1001112 energy_per_atom=-5.482522010803223 ef_per_atom_relaxed=-5.569216596145833 corrected_total_energy=-5.482522010803223 ef_per_atom=-1.2533252349999995 task_id=mp-1001112 calc_id=0 ionic_step=12 energy=-526.3221130371094 pbc="T T T"
Na      -5.10506567     -15.75414734      -6.72220541      -0.02073367       0.01378345      -0.02504486
Na      -5.15644973      -0.16854601      -2.14804104       0.02073537      -0.01378225      -0.02504897
Na      -1.73594460      -7.79280067      -7.00028770       0.02073498       0.01378375       0.02504740
Na      -1.68456054      -8.12989268      -2.42612333      -0.02073495      -0.01378033       0.02504654
Na      -1.73594460      -0.16854601      -2.42612333       0.02073497      -0.01378326       0.02504675
Na      -1.68456054     -15.75414734      -7.00028770      -0.02073589       0.01378159       0.02504785
Na      -5.10506567      -8.12989268      -2.14804104      -0.02073517      -0.01378202      -0.02504728
Na      -5.15644973      -7.79280067      -6.72220541       0.02073275       0.01378310      -0.02504562
Na      -5.18556507     -11.94715922      -9.14086919      -0.01350643       0.01008922       0.01505692
Na      -5.07595033      -3.97553413      -4.56670482       0.01350693      -0.01009077       0.01505506
Na      -1.65544520      -3.98581255      -4.58162392       0.01350710       0.01009060      -0.01505569
Na      -1.76505994     -11.93688080      -0.00745955      -0.01350632      -0.01008903      -0.01505661
Na      -1.65544520      -3.97553413      -0.00745955       0.01350784      -0.01009028      -0.01505534
Na      -1.76505994     -11.94715922      -4.58162392      -0.01350605       0.01008955      -0.01505710
Na      -5.18556507     -11.93688080      -4.56670482      -0.01350597      -0.01008950       0.01505661
Na      -5.07595033      -3.98581255      -9.14086919       0.01350687       0.01009049       0.01505551
H       -0.35898071     -12.91858937      -6.63396355       0.01204309      -0.04021180       0.00378656
H       -3.06152442      -3.00410398      -2.05979918      -0.01204444       0.04020822       0.00378472
H       -6.48202956      -4.95724269      -7.08852956      -0.01204063      -0.04021692      -0.00379056
H       -3.77948585     -10.96545066      -2.51436519       0.01204561       0.04020548      -0.00378162
H       -6.48202956      -3.00410398      -2.51436519      -0.01204606       0.04020500      -0.00378209
H       -3.77948585     -12.91858937      -7.08852956       0.01204374      -0.04021049      -0.00378668
H       -0.35898071     -10.96545066      -2.05979918       0.01204400       0.04020762       0.00378460
H       -3.06152442      -4.95724269      -6.63396355      -0.01204018      -0.04021871       0.00379086
H       -6.53702964     -14.26447031      -4.42663934       0.01028593      -0.03050242       0.04952645
H       -3.72448577      -1.65822304      -9.00080371      -0.01028386       0.03050236       0.04952979
H       -0.30398063      -6.30312363      -0.14752503      -0.01028511      -0.03050242      -0.04953039
H       -3.11652450      -9.61956972      -4.72168940       0.01028323       0.03050411      -0.04953480
H       -0.30398063      -1.65822304      -4.72168940      -0.01028277       0.03050430      -0.04953671
H       -3.11652450     -14.26447031      -0.14752503       0.01028514      -0.03050250      -0.04952776
H       -6.53702964      -9.61956972      -9.00080371       0.01028615       0.03050247       0.04952705
H       -3.72448577      -6.30312363      -4.42663934      -0.01028310      -0.03050329       0.04953301
H       -6.54935365     -14.61487131      -0.26880754       0.04749800      -0.00407231       0.03214812
H       -3.71216176      -1.30782204      -4.84297191      -0.04749346       0.00406134       0.03214234
H       -0.29165662      -6.65352463      -4.30535683      -0.04749590      -0.00406659      -0.03214622
H       -3.12884851      -9.26916872      -8.87952120       0.04749931       0.00407648      -0.03215039
H       -0.29165662      -1.30782204      -8.87952120      -0.04749435       0.00406182      -0.03214395
H       -3.12884851     -14.61487131      -4.30535683       0.04749647      -0.00406814      -0.03214562
H       -6.54935365      -9.26916872      -4.84297191       0.04749478       0.00406671       0.03214502
H       -3.71216176      -6.65352463      -0.26880754      -0.04749893      -0.00407398       0.03214961
C       -0.02845662     -10.53616911      -6.84360355      -0.02169535      -0.10782169      -0.04551703
C       -3.39204852      -5.38652424      -2.26943918       0.02169630       0.10781176      -0.04552325
C       -6.81255365      -2.57482244      -6.87888956       0.02169526      -0.10782310       0.04552187
C       -3.44896175     -13.34787091      -2.30472519      -0.02169631       0.10782056       0.04551738
C       -6.81255365      -5.38652424      -2.30472519       0.02169532       0.10780862       0.04552483
C       -3.44896175     -10.53616911      -6.87888956      -0.02169584      -0.10782129       0.04551568
C       -0.02845662     -13.34787091      -2.26943918      -0.02169576       0.10782175      -0.04551693
C       -3.39204852      -2.57482244      -6.84360355       0.02169633      -0.10782005      -0.04552420
O       -0.08275324     -11.65585546      -7.50987889      -0.00450695       0.05968657      -0.01336206
O       -3.33775190      -4.26683789      -2.93571452       0.00450765      -0.05969250      -0.01336137
O       -6.75825703      -3.69450878      -6.21261422       0.00450667       0.05969903       0.01335742
O       -3.50325837     -12.22818457      -1.63844985      -0.00450864      -0.05968705       0.01336628
O       -6.75825703      -4.26683789      -1.63844985       0.00450761      -0.05969247       0.01336309
O       -3.50325837     -11.65585546      -6.21261422      -0.00450940       0.05968618       0.01336285
O       -0.08275324     -12.22818457      -2.93571452      -0.00450725      -0.05968624      -0.01336456
O       -3.33775190      -3.69450878      -7.50987889       0.00450724       0.05969840      -0.01335673
O       -6.79810776      -9.40420128      -7.47623783      -0.02850294       0.12229450       0.00690868
O       -3.46340764      -6.51849207      -2.90207346       0.02850407      -0.12228329       0.00691664
O       -0.04290251      -1.44285460      -6.24625528       0.02850440       0.12228914      -0.00691396
O       -3.37760263     -14.47983875      -1.67209091      -0.02850303      -0.12229437      -0.00690827
O       -0.04290251      -6.51849207      -1.67209091       0.02850503      -0.12228096      -0.00691661
O       -3.37760263      -9.40420128      -6.24625528      -0.02850321       0.12229525      -0.00691009
O       -6.79810776     -14.47983875      -2.90207346      -0.02850306      -0.12229587       0.00690874
O       -3.46340764      -1.44285460      -7.47623783       0.02850391       0.12228322       0.00691482
O       -0.04575192     -10.57124028      -5.54638581      -0.03505134      -0.01929957       0.07875073
O       -3.37475321      -5.35145307      -0.97222144       0.03505031       0.01929837       0.07875100
O       -6.79525835      -2.60989360      -8.17610730       0.03505040      -0.01930174      -0.07874709
O       -3.46625706     -13.31279975      -3.60194293      -0.03505176       0.01929751      -0.07875353
O       -6.79525835      -5.35145307      -3.60194293       0.03504940       0.01929918      -0.07875106
O       -3.46625706     -10.57124028      -8.17610730      -0.03505237      -0.01929978      -0.07875198
O       -0.04575192     -13.31279975      -0.97222144      -0.03505056       0.01929596       0.07875410
O       -3.37475321      -2.60989360      -5.54638581       0.03505126      -0.01930150       0.07874632
O       -0.65786630     -13.72911258      -6.06227223      -0.00537911      -0.01944426       0.03917575
O       -2.76263884      -2.19358077      -1.48810786       0.00537834       0.01944917       0.03917898
O       -6.18314397      -5.76776590      -7.66022088       0.00537944      -0.01944050      -0.03917126
O       -4.07837143     -10.15492745      -3.08605651      -0.00537756       0.01945162      -0.03918228
O       -6.18314397      -2.19358077      -3.08605651       0.00538179       0.01945242      -0.03918109
O       -4.07837143     -13.72911258      -7.66022088      -0.00537768      -0.01944411      -0.03917617
O       -0.65786630     -10.15492745      -1.48810786      -0.00537920       0.01944867       0.03917867
O       -2.76263884      -5.76776590      -6.06227223       0.00537643      -0.01943675       0.03917024
O       -6.22674672     -14.09247624      -5.39805965      -0.02276230       0.05998191      -0.10919270
O       -4.03476868      -1.83021711      -0.82389528       0.02276182      -0.05998445      -0.10919762
O       -0.61426355      -6.13112957      -8.32443346       0.02275735       0.05998188       0.10919427
O       -2.80624159      -9.79156378      -3.75026909      -0.02276173      -0.05998439       0.10920393
O       -0.61426355      -1.83021711      -3.75026909       0.02275807      -0.05998439       0.10920708
O       -2.80624159     -14.09247624      -8.32443346      -0.02276227       0.05998230       0.10919325
O       -6.22674672      -9.79156378      -0.82389528      -0.02276379      -0.05998269      -0.10919384
O       -4.03476868      -6.13112957      -5.39805965       0.02275881       0.05998272      -0.10919766
O       -6.26297699     -15.49901373      -8.95789649       0.04187173      -0.02356813      -0.07284096
O       -3.99853842      -0.42367962      -4.38373212      -0.04187450       0.02358837      -0.07283053
O       -0.57803328      -7.53766705      -4.76459662      -0.04187369      -0.02357883       0.07283518
O       -2.84247185      -8.38502630      -0.19043225       0.04186776       0.02356922       0.07284051
O       -0.57803328      -0.42367962      -0.19043225      -0.04187542       0.02358452       0.07283258
O       -2.84247185     -15.49901373      -4.76459662       0.04186982      -0.02357619       0.07283509
O       -6.26297699      -8.38502630      -4.38373212       0.04187620       0.02357856      -0.07283387
O       -3.99853842      -7.53766705      -8.95789649      -0.04186717      -0.02357196      -0.07284248
96
Lattice="-6.82455544 0.0 0.0 0.0 0.0 -9.1452723 0.0 -15.91189 0.0" Properties=species:S:1:pos:R:3:forces:R:3 e_per_atom_relaxed=-5.569216596145833 mp_id=mp-1001112 energy_per_atom=-5.4822728633880615 ef_per_atom_relaxed=-5.569216596145833 corrected_total_energy=-5.4822728633880615 ef_per_atom=-1.2532273471874995 task_id=mp-1001112 calc_id=0 ionic_step=10 energy=-526.2981948852539 pbc="T T T"
Na      -5.09237537     -15.74440924      -6.72043801      -0.03545249      -0.00016475      -0.01539483
Na      -5.14445779      -0.16748076      -2.14780186       0.03545016       0.00016517      -0.01539242
Na      -1.73218007      -7.78846424      -6.99747044       0.03545143      -0.00016357       0.01539436
Na      -1.68009765      -8.12342576      -2.42483429      -0.03545237       0.00016496       0.01539310
Na      -1.73218007      -0.16748076      -2.42483429       0.03545105       0.00016424       0.01539523
Na      -1.68009765     -15.74440924      -6.99747044      -0.03545123      -0.00016561       0.01539325
Na      -5.09237537      -8.12342576      -2.14780186      -0.03545171       0.00016666      -0.01539140
Na      -5.14445779      -7.78846424      -6.72043801       0.03545257      -0.00016218      -0.01539560
Na      -5.17304817     -11.93917208      -9.13800666      -0.00664099       0.01350637       0.01715471
Na      -5.06378499      -3.97271792      -4.56537051       0.00663965      -0.01350206       0.01714905
Na      -1.65150727      -3.98322708      -4.57990179       0.00663953       0.01350099      -0.01715030
Na      -1.76077045     -11.92866292      -0.00726564      -0.00664151      -0.01350319      -0.01715086
Na      -1.65150727      -3.97271792      -0.00726564       0.00664065      -0.01350176      -0.01714969
Na      -1.76077045     -11.93917208      -4.57990179      -0.00664008       0.01350266      -0.01715152
Na      -5.17304817     -11.92866292      -4.56537051      -0.00663979      -0.01350266       0.01714881
Na      -5.06378499      -3.98322708      -9.13800666       0.00664056       0.01350435       0.01715456
H       -0.35734225     -12.91100111      -6.63207118       0.00931429      -0.03406286       0.00795418
H       -3.05493547      -3.00088889      -2.05943503      -0.00931513       0.03406227       0.00795239
H       -6.46721319      -4.95505611      -7.08583727      -0.00931757      -0.03405714      -0.00794977
H       -3.76961997     -10.95683389      -2.51320112       0.00931411       0.03406513      -0.00795496
H       -6.46721319      -3.00088889      -2.51320112      -0.00931650       0.03405905      -0.00795132
H       -3.76961997     -12.91100111      -7.08583727       0.00931412      -0.03406417      -0.00795400
H       -0.35734225     -10.95683389      -2.05943503       0.00931151       0.03406847       0.00795639
H       -3.05493547      -4.95505611      -6.63207118      -0.00931779      -0.03405607       0.00794989
H       -6.52159356     -14.25670465      -4.42763255       0.00620858      -0.02389882       0.06672585
H       -3.71523960      -1.65518535      -9.00026870      -0.00620189       0.02390345       0.06674719
H       -0.30296188      -6.30075965      -0.14500360      -0.00620100      -0.02390308      -0.06674790
H       -3.10931584      -9.61113035      -4.71763975       0.00621019       0.02389778      -0.06672227
H       -0.30296188      -1.65518535      -4.71763975      -0.00620954       0.02389775      -0.06672323
H       -3.10931584     -14.25670465      -0.14500360       0.00620145      -0.02390362      -0.06674635
H       -6.52159356      -9.61113035      -9.00026870       0.00620076       0.02390453       0.06675243
H       -3.71523960      -6.30075965      -4.42763255      -0.00620894      -0.02389720       0.06672311
H       -6.53522875     -14.60550155      -0.26665181       0.07984360      -0.01008558       0.02935177
H       -3.70160441      -1.30638845      -4.83928796      -0.07984036       0.01007450       0.02934510
H       -0.28932669      -6.64955655      -4.30598434      -0.07983920      -0.01007462      -0.02934533
H       -3.12295103      -9.26233345      -8.87862049       0.07984284       0.01008356      -0.02935064
H       -0.28932669      -1.30638845      -8.87862049      -0.07983939       0.01007223      -0.02934426
H       -3.12295103     -14.60550155      -4.30598434       0.07984364      -0.01008511      -0.02935272
H       -6.53522875      -9.26233345      -4.83928796       0.07984293       0.01008582       0.02935100
H       -3.70160441      -6.64955655      -0.26665181      -0.07983993      -0.01007414       0.02934557
C       -0.02864170     -10.52805651      -6.84056107      -0.02267234      -0.13085593      -0.07066649
C       -3.38363602      -5.38383349      -2.26792492       0.02267109       0.13083607      -0.07064599
C       -6.79591374      -2.57211151      -6.87734738       0.02267149      -0.13084228       0.07064574
C       -3.44091942     -13.33977849      -2.30471123      -0.02267157       0.13085485       0.07066442
C       -6.79591374      -5.38383349      -2.30471123       0.02267132       0.13083670       0.07065631
C       -3.44091942     -10.52805651      -6.87734738      -0.02267222      -0.13085675       0.07065352
C       -0.02864170     -13.33977849      -2.26792492      -0.02267205       0.13085794      -0.07065815
C       -3.38363602      -2.57211151      -6.84056107       0.02267123      -0.13084146      -0.07065931
O       -0.08182840     -11.64813868      -7.50772048       0.00790602       0.08139318       0.00211268
O       -3.33044932      -4.26375132      -2.93508433      -0.00790492      -0.08136347       0.00209510
O       -6.74272704      -3.69219368      -6.21018797      -0.00790381       0.08137745      -0.00210164
O       -3.49410612     -12.21969632      -1.63755182       0.00790617      -0.08139434      -0.00211233
O       -6.74272704      -4.26375132      -1.63755182      -0.00790334      -0.08136815      -0.00209799
O       -3.49410612     -11.64813868      -6.21018797       0.00790594       0.08139768      -0.00211352
O       -0.08182840     -12.21969632      -2.93508433       0.00790627      -0.08139455       0.00211322
O       -3.33044932      -3.69219368      -7.50772048      -0.00790532       0.08137506       0.00209957
O       -6.78216130      -9.39672988      -7.47458460      -0.03789641       0.10295732       0.03018895
O       -3.45467186      -6.51516012      -2.90194845       0.03789546      -0.10296954       0.03017959
O       -0.04239414      -1.44078488      -6.24332385       0.03789490       0.10296199      -0.03018886
O       -3.36988358     -14.47110512      -1.67068770      -0.03789586      -0.10295708      -0.03019041
O       -0.04239414      -6.51516012      -1.67068770       0.03789593      -0.10296649      -0.03018454
O       -3.36988358      -9.39672988      -6.24332385      -0.03789489       0.10295417      -0.03018895
O       -6.78216130     -14.47110512      -2.90194845      -0.03789534      -0.10295904       0.03018701
O       -3.45467186      -1.44078488      -7.47458460       0.03789625       0.10296559       0.03018561
O       -0.04652238     -10.56479086      -5.54347128      -0.03494171      -0.02265853       0.06302115
O       -3.36575534      -5.34709914      -0.97083513       0.03494165       0.02266002       0.06302014
O       -6.77803306      -2.60884586      -8.17443717       0.03494185      -0.02265683      -0.06300679
O       -3.45880010     -13.30304414      -3.60180102      -0.03494246       0.02265763      -0.06302062
O       -6.77803306      -5.34709914      -3.60180102       0.03494150       0.02266115      -0.06302613
O       -3.45880010     -10.56479086      -8.17443717      -0.03494248      -0.02265656      -0.06300497
O       -0.04652238     -13.30304414      -0.97083513      -0.03494206       0.02265686       0.06301337
O       -3.36575534      -2.60884586      -5.54347128       0.03494130      -0.02265888       0.06302366
O       -0.65729143     -13.72063499      -6.06038987      -0.00752401      -0.01673004       0.04601029
O       -2.75498629      -2.19125501      -1.48775372       0.00752544       0.01673183       0.04601497
O       -6.16726401      -5.76468999      -7.65751858       0.00752559      -0.01674023      -0.04602014
O       -4.06956915     -10.14720001      -3.08488243      -0.00752279       0.01672721      -0.04600969
O       -6.16726401      -2.19125501      -3.08488243       0.00752729       0.01673546      -0.04601516
O       -4.06956915     -13.72063499      -7.65751858      -0.00752103      -0.01673049      -0.04601389
O       -0.65729143     -10.14720001      -1.48775372      -0.00752234       0.01672158       0.04600640
O       -2.75498629      -5.76468999      -6.06038987       0.00752676      -0.01674029       0.04601884
O       -6.21076093     -14.08345313      -5.39765256      -0.01782680       0.05994391      -0.12682530
O       -4.02607223      -1.82843687      -0.82501641       0.01782003      -0.05994770      -0.12684752
O       -0.61379451      -6.12750813      -8.32025589       0.01782379       0.05994838       0.12685232
O       -2.79848321      -9.78438187      -3.74761974      -0.01783082      -0.05994222       0.12681860
O       -0.61379451      -1.82843687      -3.74761974       0.01782995      -0.05994421       0.12682147
O       -2.79848321     -14.08345313      -8.32025589      -0.01782450       0.05994758       0.12685150
O       -6.21076093      -9.78438187      -0.82501641      -0.01781762      -0.05994743      -0.12684938
O       -4.02607223      -6.12750813      -5.39765256       0.01783034       0.05994430      -0.12682515
O       -6.24733652     -15.48800457      -8.95215104       0.04430813      -0.03396253      -0.08411753
O       -3.98949664      -0.42388543      -4.37951489      -0.04430929       0.03397328      -0.08411314
O       -0.57721892      -7.53205957      -4.76575741      -0.04430926      -0.03397614       0.08411191
O       -2.83505880      -8.37983043      -0.19312126       0.04430711       0.03396261       0.08411874
O       -0.57721892      -0.42388543      -0.19312126      -0.04431191       0.03397445       0.08411033
O       -2.83505880     -15.48800457      -4.76575741       0.04430529      -0.03396167       0.08412017
O       -6.24733652      -8.37983043      -4.37951489       0.04430443       0.03396285      -0.08411990
O       -3.98949664      -7.53205957      -8.95215104      -0.04431230      -0.03397588      -0.08411071
96
Lattice="-6.80966495 0.0 0.0 0.0 0.0 -9.14852444 0.0 -15.90862005 0.0" Properties=species:S:1:pos:R:3:forces:R:3 e_per_atom_relaxed=-5.569216596145833 mp_id=mp-1001112 energy_per_atom=-5.482139428456624 ef_per_atom_relaxed=-5.569216596145833 corrected_total_energy=-5.482139428456624 ef_per_atom=-1.2531239886458334 task_id=mp-1001112 calc_id=0 ionic_step=8 energy=-526.2853851318359 pbc="T T T"
Na      -5.08094985     -15.74186462      -6.72346341      -0.04529445      -0.00361893      -0.01731252
Na      -5.13354757      -0.16675543      -2.14920119       0.04529893       0.00361681      -0.01731577
Na      -1.72871510      -7.78755460      -6.99932325       0.04529524      -0.00362096       0.01730922
Na      -1.67611738      -8.12106545      -2.42506103      -0.04529555       0.00361925       0.01731414
Na      -1.72871510      -0.16675543      -2.42506103       0.04529595       0.00361548       0.01731569
Na      -1.67611738     -15.74186462      -6.99932325      -0.04529656      -0.00361877       0.01731271
Na      -5.08094985      -8.12106545      -2.14920119      -0.04529648       0.00361855      -0.01731301
Na      -5.13354757      -7.78755460      -6.72346341       0.04529554      -0.00362199      -0.01731185
Na      -5.16166325     -11.93688606      -9.14156772      -0.00012265       0.02122904       0.01676592
Na      -5.05283418      -3.97173399      -4.56730550       0.00012411      -0.02123006       0.01676971
Na      -1.64800170      -3.98257603      -4.58121894       0.00012460       0.02123035      -0.01676710
Na      -1.75683077     -11.92604402      -0.00695672      -0.00012329      -0.02123024      -0.01677217
Na      -1.64800170      -3.97173399      -0.00695672       0.00012358      -0.02123002      -0.01676916
Na      -1.75683077     -11.93688606      -4.58121894      -0.00012285       0.02122960      -0.01676905
Na      -5.16166325     -11.92604402      -4.56730550      -0.00012271      -0.02123073       0.01677240
Na      -5.05283418      -3.98257603      -9.14156772       0.00012423       0.02122894       0.01676415
H       -0.35631497     -12.91004721      -6.63575851      -0.00048798      -0.04382277       0.02192235
H       -3.04851751      -2.99857284      -2.06149629       0.00049190       0.04383457       0.02193028
H       -6.45334998      -4.95573719      -7.08702815       0.00049514      -0.04384065      -0.02193445
H       -3.76114744     -10.95288286      -2.51276593      -0.00049416       0.04384065      -0.02193451
H       -6.45334998      -2.99857284      -2.51276593       0.00049404       0.04383838      -0.02193218
H       -3.76114744     -12.91004721      -7.08702815      -0.00048635      -0.04382277      -0.02192116
H       -0.35631497     -10.95288286      -2.06149629      -0.00049540       0.04383957       0.02193415
H       -3.04851751      -4.95573719      -6.63575851       0.00049389      -0.04384100       0.02193499
H       -6.50740095     -14.25699014      -4.43133510       0.02110792      -0.00224359       0.02304232
H       -3.70709648      -1.65162991      -9.00559732      -0.02110153       0.00224937       0.02305973
H       -0.30226400      -6.30268011      -0.14292712      -0.02110302      -0.00224890      -0.02305794
H       -3.10256847      -9.60593994      -4.71718934       0.02109994       0.00224996      -0.02306616
H       -0.30226400      -1.65162991      -4.71718934      -0.02110218       0.00224912      -0.02306294
H       -3.10256847     -14.25699014      -0.14292712       0.02110174      -0.00224751      -0.02306008
H       -6.50740095      -9.60593994      -9.00559732       0.02110166       0.00224885       0.02306056
H       -3.70709648      -6.30268011      -4.43133510      -0.02110662      -0.00224544       0.02304494
H       -6.52279236     -14.60240398      -0.26341840       0.11634918      -0.02148700       0.03363270
H       -3.69170507      -1.30621607      -4.83768062      -0.11635067       0.02148771       0.03363293
H       -0.28687259      -6.64809396      -4.31084382      -0.11634994      -0.02148831      -0.03363353
H       -3.11795988      -9.26052609      -8.88510604       0.11634988       0.02148783      -0.03363216
H       -0.28687259      -1.30621607      -8.88510604      -0.11634919       0.02148473      -0.03363276
H       -3.11795988     -14.60240398      -4.31084382       0.11635004      -0.02148592      -0.03363281
H       -6.52279236      -9.26052609      -4.83768062       0.11634922       0.02148652       0.03363198
H       -3.69170507      -6.64809396      -0.26341840      -0.11635014      -0.02149010       0.03363293
C       -0.02905827     -10.52854477      -6.84354218      -0.01010482       0.08126963       0.00573814
C       -3.37577420      -5.38007528      -2.26927996       0.01010401      -0.08126590       0.00573755
C       -6.78060668      -2.57423474      -6.87924448       0.01010266       0.08128051      -0.00573946
C       -3.43389075     -13.33438531      -2.30498226      -0.01010128      -0.08130798      -0.00574635
C       -6.78060668      -5.38007528      -2.30498226       0.01010444      -0.08126927      -0.00574592
C       -3.43389075     -10.52854477      -6.87924448      -0.01010495       0.08126877      -0.00573890
C       -0.02905827     -13.33438531      -2.26927996      -0.01010139      -0.08130573       0.00573782
C       -3.37577420      -2.57423474      -6.84354218       0.01010352       0.08128117       0.00573974
O       -0.08065340     -11.64433863      -7.51028847       0.01495492       0.01947066      -0.03275896
O       -3.32417908      -4.26428142      -2.93602625      -0.01495484      -0.01947528      -0.03275698
O       -6.72901155      -3.69002860      -6.21249819      -0.01495400       0.01946315       0.03276297
O       -3.48548587     -12.21859145      -1.63823597       0.01495162      -0.01945060       0.03277079
O       -6.72901155      -4.26428142      -1.63823597      -0.01495443      -0.01947111       0.03275754
O       -3.48548587     -11.64433863      -6.21249819       0.01495411       0.01947048       0.03275990
O       -0.08065340     -12.21859145      -2.93602625       0.01495319      -0.01945269      -0.03277062
O       -3.32417908      -3.69002860      -7.51028847      -0.01495326       0.01946238      -0.03276242
O       -6.76789351      -9.39161201      -7.47837458      -0.05227873      -0.07506756       0.12454376
O       -3.44660391      -6.51700804      -2.90411236       0.05227850       0.07507121       0.12454168
O       -0.04177144      -1.43730198      -6.24441208       0.05228055      -0.07507242      -0.12454396
O       -3.36306104     -14.47131807      -1.67014986      -0.05228099       0.07509182      -0.12455678
O       -0.04177144      -6.51700804      -1.67014986       0.05227946       0.07507057      -0.12454298
O       -3.36306104      -9.39161201      -6.24441208      -0.05227861      -0.07506762      -0.12454313
O       -6.76789351     -14.47131807      -2.90411236      -0.05228001       0.07509060       0.12455235
O       -3.44660391      -1.43730198      -7.47837458       0.05227947      -0.07507383       0.12454757
O       -0.04740317     -10.56358096      -5.54279949      -0.02938127      -0.00345469      -0.09517816
O       -3.35742931      -5.34503909      -0.96853727       0.02937922       0.00345427      -0.09518346
O       -6.76226178      -2.60927093      -8.17998717       0.02937984      -0.00345513       0.09517938
O       -3.45223564     -13.29934912      -3.60572495      -0.02937960       0.00345320       0.09519127
O       -6.76226178      -5.34503909      -3.60572495       0.02937864       0.00345513       0.09519041
O       -3.45223564     -10.56358096      -8.17998717      -0.02938079      -0.00345474       0.09518048
O       -0.04740317     -13.29934912      -0.96853727      -0.02938006       0.00345322      -0.09518090
O       -3.35742931      -2.60927093      -5.54279949       0.02938039      -0.00345436      -0.09518078
O       -0.65656120     -13.71825347      -6.06241097      -0.01300231       0.00761542       0.02837015
O       -2.74827127      -2.19036658      -1.48814875       0.01299289      -0.00762779       0.02836245
O       -6.15310375      -5.76394345      -7.66037569       0.01299587       0.00763682      -0.02835517
O       -4.06139368     -10.14467660      -3.08611347      -0.01298958      -0.00763607      -0.02835667
O       -6.15310375      -2.19036658      -3.08611347       0.01299655      -0.00763172      -0.02835802
O       -4.06139368     -13.71825347      -7.66037569      -0.01299742       0.00761524      -0.02837185
O       -0.65656120     -10.14467660      -1.48814875      -0.01299176      -0.00763559       0.02835677
O       -2.74827127      -5.76394345      -6.06241097       0.01299268       0.00763780       0.02835460
O       -6.19608166     -14.08071070      -5.40207267      -0.03339335       0.04177663      -0.04468109
O       -4.01841577      -1.82790935      -0.82781045       0.03338903      -0.04178053      -0.04470471
O       -0.61358329      -6.12640067      -8.32071399       0.03338325       0.04177782       0.04470056
O       -2.79124918      -9.78221938      -3.74645177      -0.03338602      -0.04178110       0.04471168
O       -0.61358329      -1.82790935      -3.74645177       0.03338417      -0.04178035       0.04470436
O       -2.79124918     -14.08071070      -8.32071399      -0.03338921       0.04177910       0.04470491
O       -6.19608166      -9.78221938      -0.82781045      -0.03338572      -0.04177928      -0.04470585
O       -4.01841577      -6.12640067      -5.40207267       0.03339171       0.04177776      -0.04468364
O       -6.23240577     -15.48447842      -8.95273824       0.01617932      -0.01935758      -0.09581529
O       -3.98209165      -0.42414163      -4.37847602      -0.01617834       0.01935908      -0.09581397
O       -0.57725918      -7.53016840      -4.77004842      -0.01618528      -0.01935177       0.09581441
O       -2.82757330      -8.37845165      -0.19578620       0.01618457       0.01935537       0.09581508
O       -0.57725918      -0.42414163      -0.19578620      -0.01618242       0.01936130       0.09581484
O       -2.82757330     -15.48447842      -4.77004842       0.01617649      -0.01935941       0.09581204
O       -6.23240577      -8.37845165      -4.37847602       0.01618636       0.01935343      -0.09581308
O       -3.98209165      -7.53016840      -8.95273824      -0.01618189      -0.01935163      -0.09581678
96
Lattice="-6.77995472 0.0 0.0 -0.0 0.0 -9.16545862 0.0 -15.91882994 0.0" Properties=species:S:1:pos:R:3:forces:R:3 e_per_atom_relaxed=-5.569216596145833 mp_id=mp-1001112 energy_per_atom=-5.481805801391602 ef_per_atom_relaxed=-5.569216596145833 corrected_total_energy=-5.481805801391602 ef_per_atom=-1.2528609666666668 task_id=mp-1001112 calc_id=0 ionic_step=6 energy=-526.2533569335938 pbc="T T T"
Na      -5.05879786     -15.75170674      -6.73797765      -0.05841603      -0.01162877      -0.03247302
Na      -5.11113422      -0.16712320      -2.15524834       0.05841571       0.01162590      -0.03247203
Na      -1.72115686      -7.79229177      -7.01021028       0.05841772      -0.01162824       0.03247210
Na      -1.66882050      -8.12653817      -2.42748097      -0.05841666       0.01162678       0.03247219
Na      -1.72115686      -0.16712320      -2.42748097       0.05841678       0.01162891       0.03247236
Na      -1.66882050     -15.75170674      -7.01021028      -0.05841659      -0.01162837       0.03247290
Na      -5.05879786      -8.12653817      -2.15524834      -0.05841640       0.01162569      -0.03247351
Na      -5.11113422      -7.79229177      -6.73797765       0.05841562      -0.01162712      -0.03246941
Na      -5.13851399     -11.94521969      -9.16010636       0.01687655       0.02773902       0.03141466
Na      -5.03141809      -3.97361025      -4.57737705      -0.01687734      -0.02773998       0.03142081
Na      -1.64144073      -3.98580472      -4.58808157      -0.01687590       0.02773804      -0.03141789
Na      -1.74853663     -11.93302522      -0.00535226       0.01687706      -0.02773980      -0.03142200
Na      -1.64144073      -3.97361025      -0.00535226      -0.01687618      -0.02773866      -0.03142188
Na      -1.74853663     -11.94521969      -4.58808157       0.01687550       0.02773911      -0.03141452
Na      -5.13851399     -11.93302522      -4.57737705       0.01687706      -0.02774127       0.03142393
Na      -5.03141809      -3.98580472      -9.16010636      -0.01687858       0.02773778       0.03141618
H       -0.35846875     -12.92641625      -6.65547046       0.04281649       0.12656248      -0.08067566
H       -3.03150861      -2.99241369      -2.07274115      -0.04281227      -0.12655020      -0.08066535
H       -6.42148597      -4.96700128      -7.09271747      -0.04281423       0.12655735       0.08067030
H       -3.74844611     -10.95182866      -2.50998816       0.04280729      -0.12653840       0.08065945
H       -6.42148597      -2.99241369      -2.50998816      -0.04281025      -0.12654650       0.08066541
H       -3.74844611     -12.92641625      -7.09271747       0.04281718       0.12656534       0.08067757
H       -0.35846875     -10.95182866      -2.07274115       0.04280933      -0.12654030      -0.08065951
H       -3.03150861      -4.96700128      -6.65547046      -0.04281302       0.12655365      -0.08066779
H       -6.47594209     -14.27996395      -4.44358674       0.06011261       0.07194355      -0.11569035
H       -3.69398999      -1.63886599      -9.02631605      -0.06011683      -0.07194719      -0.11570537
H       -0.30401263      -6.32054898      -0.13914257      -0.06011739       0.07194619       0.11570704
H       -3.08596473      -9.59828096      -4.72187188       0.06011415      -0.07194421       0.11569953
H       -0.30401263      -1.63886599      -4.72187188      -0.06011480      -0.07194610       0.11570263
H       -3.08596473     -14.27996395      -0.13914257       0.06011631       0.07194641       0.11570311
H       -6.47594209      -9.59828096      -9.02631605       0.06011641      -0.07194570      -0.11570716
H       -3.69398999      -6.32054898      -4.44358674      -0.06011198       0.07194313      -0.11568964
H       -6.49765646     -14.60728216      -0.24964711       0.18499550      -0.03130043       0.05963612
H       -3.67227562      -1.31154778      -4.83237642      -0.18499634       0.03130317       0.05963564
H       -0.28229826      -6.64786719      -4.33308220      -0.18499628      -0.03130424      -0.05963594
H       -3.10767910      -9.27096275      -8.91581151       0.18499652       0.03130281      -0.05963528
H       -0.28229826      -1.31154778      -8.91581151      -0.18499538       0.03130257      -0.05963457
H       -3.10767910     -14.60728216      -4.33308220       0.18499628      -0.03130376      -0.05963707
H       -6.49765646      -9.27096275      -4.83237642       0.18499631       0.03130198       0.05963516
H       -3.67227562      -6.64786719      -0.24964711      -0.18499678      -0.03130412       0.05963582
C       -0.02964434     -10.53427648      -6.85624497      -0.01936822       0.02854939       0.04054764
C       -3.36033302      -5.38455346      -2.27351566       0.01936565      -0.02857293       0.04055243
C       -6.75031038      -2.57486151      -6.89194296       0.01936710       0.02857012      -0.04055951
C       -3.41962170     -13.34396843      -2.30921365      -0.01936729      -0.02856550      -0.04055713
C       -6.75031038      -5.38455346      -2.30921365       0.01936651      -0.02857619      -0.04054613
C       -3.41962170     -10.53427648      -6.89194296      -0.01936852       0.02854111      -0.04054910
C       -0.02964434     -13.34396843      -2.27351566      -0.01936659      -0.02856458       0.04056048
C       -3.36033302      -2.57486151      -6.85624497       0.01936653       0.02857609       0.04055475
O       -0.07697554     -11.64792121      -7.52518725       0.03187390      -0.01431602      -0.05801194
O       -3.31300182      -4.27090873      -2.94245794      -0.03187192       0.01433668      -0.05801775
O       -6.70297918      -3.68850624      -6.22300068      -0.03187021      -0.01433021       0.05801331
O       -3.46695290     -12.23032370      -1.64027137       0.03187038       0.01434216       0.05802152
O       -6.70297918      -4.27090873      -1.64027137      -0.03187058       0.01433626       0.05801938
O       -3.46695290     -11.64792121      -6.22300068       0.03187469      -0.01430425       0.05799923
O       -0.07697554     -12.23032370      -2.94245794       0.03187086       0.01434183      -0.05802228
O       -3.31300182      -3.68850624      -7.52518725      -0.03187171      -0.01434046      -0.05802049
O       -6.74163292      -9.39690410      -7.48608594      -0.02257709      -0.01127608      -0.00727546
O       -3.42829916      -6.52192584      -2.90335663       0.02257688       0.01128248      -0.00727269
O       -0.03832180      -1.43748913      -6.26210199       0.02257672      -0.01128618       0.00726995
O       -3.35165556     -14.48134081      -1.67937268      -0.02257665       0.01127084       0.00727522
O       -0.03832180      -6.52192584      -1.67937268       0.02257699       0.01128602       0.00727105
O       -3.35165556      -9.39690410      -6.26210199      -0.02257693      -0.01127994       0.00727159
O       -6.74163292     -14.48134081      -2.90335663      -0.02257669       0.01127097      -0.00727513
O       -3.42829916      -1.43748913      -7.48608594       0.02257717      -0.01128184      -0.00727257
O       -0.05000759     -10.57351799      -5.55484425      -0.01880964       0.00189337      -0.09878370
O       -3.33996977      -5.34531195      -0.97211494       0.01880753      -0.00189376      -0.09878394
O       -6.72994713      -2.61410302      -8.19334368       0.01880912       0.00189519       0.09879875
O       -3.43998495     -13.30472692      -3.61061437      -0.01880863      -0.00189289       0.09878087
O       -6.72994713      -5.34531195      -3.61061437       0.01880942      -0.00189191       0.09877965
O       -3.43998495     -10.57351799      -8.19334368      -0.01880866       0.00189239       0.09880033
O       -0.05000759     -13.30472692      -0.97211494      -0.01880878      -0.00189307      -0.09878486
O       -3.33996977      -2.61410302      -5.55484425       0.01880771       0.00189587      -0.09878093
O       -0.65632633     -13.72257169      -6.07589415      -0.03677937      -0.14324617       0.09932013
O       -2.73365103      -2.19625825      -1.49316484       0.03677785       0.14322889       0.09930621
O       -6.12362839      -5.76315672      -7.67229378       0.03677630      -0.14323443      -0.09931083
O       -4.04630369     -10.15567322      -3.08956447      -0.03677076       0.14321819      -0.09929919
O       -6.12362839      -2.19625825      -3.08956447       0.03677627       0.14322603      -0.09930633
O       -4.04630369     -13.72257169      -7.67229378      -0.03677949      -0.14324778      -0.09932098
O       -0.65632633     -10.15567322      -1.49316484      -0.03677157       0.14322081       0.09930028
O       -2.73365103      -5.76315672      -6.07589415       0.03677657      -0.14323089       0.09930800
O       -6.16388654     -14.08987052      -5.41724514      -0.15786079      -0.00617504       0.27117717
O       -4.00604554      -1.82895942      -0.83451583       0.15785855       0.00618055       0.27119741
O       -0.61606818      -6.13045555      -8.33094279       0.15786222      -0.00618079      -0.27119946
O       -2.77390918      -9.78837439      -3.74821348      -0.15785855       0.00617874      -0.27119166
O       -0.61606818      -1.82895942      -3.74821348       0.15785959       0.00617978      -0.27119595
O       -2.77390918     -14.08987052      -8.33094279      -0.15786409      -0.00617868      -0.27119178
O       -6.16388654      -9.78837439      -0.83451583      -0.15786213       0.00617927       0.27119702
O       -4.00604554      -6.13045555      -5.41724514       0.15785506      -0.00617871       0.27118325
O       -6.20247404     -15.49450445      -8.96708473      -0.05403030       0.06378445      -0.11378109
O       -3.96745804      -0.42432549      -4.38435542       0.05402911      -0.06378920      -0.11378531
O       -0.57748068      -7.53508948      -4.78110320       0.05402619       0.06379472       0.11378291
O       -2.81249668      -8.38374046      -0.19837389      -0.05402347      -0.06379555       0.11378470
O       -0.57748068      -0.42432549      -0.19837389       0.05403250      -0.06378937       0.11378406
O       -2.81249668     -15.49450445      -4.78110320      -0.05402836       0.06378837       0.11378293
O       -6.20247404      -8.38374046      -4.38435542      -0.05402377      -0.06379166      -0.11378403
O       -3.96745804      -7.53508948      -8.96708473       0.05402493       0.06379676      -0.11378354
96
Lattice="-6.73550745 0.0 0.0 0.0 0.0 -9.18525326 0.0 -15.95588278 0.0" Properties=species:S:1:pos:R:3:forces:R:3 e_per_atom_relaxed=-5.569216596145833 mp_id=mp-1001112 energy_per_atom=-5.4808774789174395 ef_per_atom_relaxed=-5.569216596145833 corrected_total_energy=-5.4808774789174395 ef_per_atom=-1.2520634659374998 task_id=mp-1001112 calc_id=0 ionic_step=0 energy=-526.1642379760742 pbc="T T T"
Na      -5.02572003     -15.78755029      -6.75499847      -0.08513407      -0.04557325      -0.07262924
Na      -5.07754114      -0.16833249      -2.16237184       0.08513433       0.04557826      -0.07262865
Na      -1.70978742      -7.80960890      -7.02288142       0.08513429      -0.04557705       0.07262766
Na      -1.65796631      -8.14627388      -2.43025479      -0.08513427       0.04557810       0.07262848
Na      -1.70978742      -0.16833249      -2.43025479       0.08513263       0.04557680       0.07262717
Na      -1.65796631     -15.78755029      -7.02288142      -0.08513733      -0.04557434       0.07262953
Na      -5.02572003      -8.14627388      -2.16237184      -0.08513188       0.04557774      -0.07262576
Na      -5.07754114      -7.80960890      -6.75499847       0.08513411      -0.04557678      -0.07262804
Na      -5.10404597     -11.97376338      -9.18188778       0.02341609       0.09211060       0.00334018
Na      -4.99921521      -3.98211940      -4.58926115      -0.02341725      -0.09210736       0.00334197
Na      -1.63146148      -3.99582199      -4.59599211      -0.02341734       0.09210876      -0.00334057
Na      -1.73629224     -11.96006079      -0.00336548       0.02341764      -0.09211016      -0.00334065
Na      -1.63146148      -3.98211940      -0.00336548      -0.02341660      -0.09210832      -0.00334106
Na      -1.73629224     -11.97376338      -4.59599211       0.02341828       0.09210945      -0.00334117
Na      -5.10404597     -11.96006079      -4.58926115       0.02341561      -0.09210908       0.00334182
Na      -4.99921521      -3.99582199      -9.18188778      -0.02341763       0.09210902       0.00334060
H       -0.35917141     -12.96115234      -6.68628515      -0.10152586      -0.12947702       0.06235164
H       -3.00858232      -2.99473044      -2.09365852       0.10152434       0.12946939       0.06234634
H       -6.37633604      -4.98321095      -7.09159474       0.10152392      -0.12946880      -0.06234616
H       -3.72692513     -10.97267183      -2.49896811      -0.10152188       0.12945795      -0.06233793
H       -6.37633604      -2.99473044      -2.49896811       0.10152561       0.12947237      -0.06234741
H       -3.72692513     -12.96115234      -7.09159474      -0.10152565      -0.12947452      -0.06234872
H       -0.35917141     -10.97267183      -2.09365852      -0.10152082       0.12945688       0.06233913
H       -3.00858232      -4.98321095      -6.68628515       0.10152253      -0.12946522       0.06234485
H       -6.42537364     -14.33128607      -4.46555490      -0.05826741       0.03529084       0.27899599
H       -3.67788754      -1.62459671      -9.05818153       0.05827084      -0.03528845       0.27901065
H       -0.31013381      -6.35334468      -0.12707173       0.05827112       0.03528841      -0.27900672
H       -3.05761991      -9.60253810      -4.71969836      -0.05826990      -0.03528929      -0.27900338
H       -0.31013381      -1.62459671      -4.71969836       0.05826954      -0.03528900      -0.27900422
H       -3.05761991     -14.33128607      -0.12707173      -0.05827253       0.03528741      -0.27901161
H       -6.42537364      -9.60253810      -9.05818153      -0.05827242      -0.03528726       0.27901411
H       -3.67788754      -6.35334468      -4.46555490       0.05826529       0.03529131       0.27899253
H       -6.45736339     -14.63521053      -0.22843587       0.23054701       0.11203277       0.06560808
H       -3.64589778      -1.32067225      -4.82106250      -0.23055311      -0.11201119       0.06562096
H       -0.27814406      -6.65726914      -4.36419076      -0.23055464       0.11200833      -0.06562126
H       -3.08960967      -9.29861364      -8.95681739       0.23055355      -0.11201632      -0.06561995
H       -0.27814406      -1.32067225      -8.95681739      -0.23055223      -0.11201513      -0.06561971
H       -3.08960967     -14.63521053      -4.36419076       0.23054759       0.11202884      -0.06561065
H       -6.45736339      -9.29861364      -4.82106250       0.23055762      -0.11200488       0.06562376
H       -3.64589778      -6.65726914      -0.22843587      -0.23055281       0.11201358       0.06561959
C       -0.03035181     -10.55660065      -6.87173376      -0.02135941      -0.07742849       0.05955980
C       -3.33740191      -5.39928213      -2.27910713       0.02136249       0.07743128       0.05955862
C       -6.70515564      -2.57865926      -6.90614613       0.02135933      -0.07743014      -0.05957121
C       -3.39810554     -13.37722352      -2.31351950      -0.02136026       0.07743559      -0.05956174
C       -6.70515564      -5.39928213      -2.31351950       0.02135939       0.07743305      -0.05955900
C       -3.39810554     -10.55660065      -6.90614613      -0.02136041      -0.07742888      -0.05957134
C       -0.03035181     -13.37722352      -2.27910713      -0.02135942       0.07743175       0.05955967
C       -3.33740191      -2.57865926      -6.87173376       0.02136267      -0.07742884       0.05956075
O       -0.07189663     -11.67087653      -7.54461308       0.01057181      -0.00568381       0.01862023
O       -3.29585710      -4.28500625      -2.95198645      -0.01057303       0.00567898       0.01862467
O       -6.66361082      -3.69293514      -6.23326681      -0.01057217      -0.00568217      -0.01862596
O       -3.43965035     -12.26294764      -1.64064018       0.01057158       0.00568298      -0.01862120
O       -6.66361082      -4.28500625      -1.64064018      -0.01057277       0.00568113      -0.01862231
O       -3.43965035     -11.67087653      -6.23326681       0.01057232      -0.00568205      -0.01862374
O       -0.07189663     -12.26294764      -2.95198645       0.01057222       0.00568131       0.01862345
O       -3.29585710      -3.69293514      -7.54461308      -0.01057258      -0.00568569       0.01862155
O       -6.70168867      -9.41729365      -7.49419165       0.00589699       0.01499236      -0.11395857
O       -3.40157251      -6.53858913      -2.90156502      -0.00589654      -0.01499152      -0.11395867
O       -0.03381878      -1.43935226      -6.28368824      -0.00589621       0.01499148       0.11395676
O       -3.33393494     -14.51653052      -1.69106161       0.00589654      -0.01499572       0.11395718
O       -0.03381878      -6.53858913      -1.69106161      -0.00589794      -0.01499610       0.11396204
O       -3.33393494      -9.41729365      -6.28368824       0.00589624       0.01499064       0.11395478
O       -6.70168867     -14.51653052      -2.90156502       0.00589654      -0.01499297      -0.11395544
O       -3.40157251      -1.43935226      -7.49419165      -0.00589702       0.01499333      -0.11396123
O       -0.05325995     -10.60093359      -5.56950238      -0.01354272       0.00275898      -0.11704203
O       -3.31449378      -5.35494919      -0.97687575       0.01354256      -0.00275317      -0.11704537
O       -6.68224750      -2.62299220      -8.20837751       0.01354202       0.00275764       0.11705655
O       -3.42101367     -13.33289058      -3.61575088      -0.01354271      -0.00275433       0.11704350
O       -6.68224750      -5.35494919      -3.61575088       0.01354286      -0.00275370       0.11704028
O       -3.42101367     -10.60093359      -8.20837751      -0.01354201       0.00275785       0.11705750
O       -0.05325995     -13.33289058      -0.97687575      -0.01354353      -0.00275192      -0.11704656
O       -3.31449378      -2.62299220      -5.56950238       0.01354297       0.00275630      -0.11704257
O       -0.65795360     -13.75601650      -6.08627171       0.13186111       0.20176587      -0.18807617
O       -2.70980013      -2.19986628      -1.49364508      -0.13185453      -0.20175713      -0.18806997
O       -6.07755385      -5.77807511      -7.69160818      -0.13185881       0.20175715       0.18807027
O       -4.02570732     -10.17780767      -3.09898155       0.13185351      -0.20175087       0.18806577
O       -6.07755385      -2.19986628      -3.09898155      -0.13185941      -0.20175931       0.18807264
O       -4.02570732     -13.75601650      -7.69160818       0.13185814       0.20176417       0.18807495
O       -0.65795360     -10.17780767      -1.49364508       0.13185474      -0.20174780      -0.18806414
O       -2.70980013      -5.77807511      -6.08627171      -0.13185336       0.20175545      -0.18806952
O       -6.12057300     -14.12408409      -5.42632192      -0.09498483       0.03581700       0.07661075
O       -3.98268818      -1.83179869      -0.83369529       0.09497711      -0.03582028       0.07660124
O       -0.61493445      -6.14614270      -8.35155797       0.09498018       0.03582069      -0.07660022
O       -2.75281927      -9.80974008      -3.75893134      -0.09497917      -0.03581998      -0.07660554
O       -0.61493445      -1.83179869      -3.75893134       0.09498072      -0.03581971      -0.07660250
O       -2.75281927     -14.12408409      -8.35155797      -0.09497714       0.03581977      -0.07659708
O       -6.12057300      -9.80974008      -0.83369529      -0.09497949      -0.03582203       0.07659664
O       -3.98268818      -6.14614270      -5.42632192       0.09498298       0.03581685       0.07661548
O       -6.16203058     -15.52927529      -8.98745260      -0.04089716       0.09734799      -0.05826163
O       -3.94123059      -0.42660749      -4.39482597       0.04090592      -0.09737532      -0.05827135
O       -0.57347687      -7.55133390      -4.79042729       0.04090375       0.09737954       0.05827111
O       -2.79427686      -8.40454888      -0.19780066      -0.04090115      -0.09737565       0.05827308
O       -0.57347687      -0.42660749      -0.19780066       0.04090333      -0.09737307       0.05827302
O       -2.79427686     -15.52927529      -4.79042729      -0.04089963       0.09735148       0.05826101
O       -6.16203058      -8.40454888      -4.39482597      -0.04090524      -0.09738766      -0.05827796
O       -3.94123059      -7.55133390      -8.98745260       0.04090062       0.09737390      -0.05827227
96
Lattice="-6.66431234 0.0 0.0 0.0 0.0 -9.15570316 0.0 -15.8444297 0.0" Properties=species:S:1:pos:R:3:forces:R:3 e_per_atom_relaxed=-5.569216596145833 mp_id=mp-1001112 energy_per_atom=-5.470844666163127 ef_per_atom_relaxed=-5.569216596145833 corrected_total_energy=-5.470844666163127 ef_per_atom=-1.2445402828124998 task_id=mp-1001112 calc_id=1 ionic_step=2 energy=-525.2010879516602 pbc="T T T"
Na      -4.97384194     -15.67358793      -6.73547021      -0.04079376      -0.01479518       0.06229046
Na      -5.02262657      -0.17084177      -2.15761863       0.04079777       0.01479259       0.06228432
Na      -1.69047040      -7.75137308      -6.99808453       0.04079448      -0.01479821      -0.06228338
Na      -1.64168577      -8.09305662      -2.42023295      -0.04079682       0.01479487      -0.06228648
Na      -1.69047040      -0.17084177      -2.42023295       0.04079553       0.01479520      -0.06228733
Na      -1.64168577     -15.67358793      -6.99808453      -0.04079931      -0.01479355      -0.06228210
Na      -4.97384194      -8.09305662      -2.15761863      -0.04079599       0.01479190       0.06228592
Na      -5.02262657      -7.75137308      -6.73547021       0.04079498      -0.01479840       0.06228866
Na      -5.04948015     -11.88955183      -9.15398134       0.02745743       0.01080805      -0.02463779
Na      -4.94698836      -3.95487787      -4.57612976      -0.02745863      -0.01080399      -0.02464029
Na      -1.61483219      -3.96733698      -4.57957340      -0.02745594       0.01080503       0.02463922
Na      -1.71732398     -11.87709272      -0.00172182       0.02745613      -0.01080617       0.02464178
Na      -1.61483219      -3.95487787      -0.00172182      -0.02745664      -0.01080334       0.02463755
Na      -1.71732398     -11.88955183      -4.57957340       0.02745585       0.01080701       0.02464078
Na      -5.04948015     -11.87709272      -4.57612976       0.02745790      -0.01080579      -0.02464388
Na      -4.94698836      -3.96733698      -9.15398134      -0.02745870       0.01080513      -0.02463627
H       -0.34364587     -12.88579760      -6.66754176      -0.22145279      -0.05895340       0.17341596
H       -2.98851030      -2.95863210      -2.08969018       0.22144960       0.05894375       0.17340994
H       -6.32066647      -4.96358275      -7.06601298       0.22145154      -0.05895209      -0.17341715
H       -3.67580204     -10.88084695      -2.48816140      -0.22145073       0.05894864      -0.17341042
H       -6.32066647      -2.95863210      -2.48816140       0.22144890       0.05894494      -0.17340827
H       -3.67580204     -12.88579760      -7.06601298      -0.22145239      -0.05895329      -0.17341757
H       -0.34364587     -10.88084695      -2.08969018      -0.22145033       0.05894804       0.17341238
H       -2.98851030      -4.96358275      -6.66754176       0.22145291      -0.05895185       0.17341590
H       -6.36827586     -14.24151498      -4.47046132       0.03913401       0.04882030       0.17554212
H       -3.62819265      -1.60291472      -9.04831290      -0.03914078      -0.04882535       0.17552471
H       -0.29603648      -6.31930013      -0.10739026      -0.03914132       0.04882567      -0.17552245
H       -3.03611969      -9.52512957      -4.68524184       0.03913759      -0.04882207      -0.17553592
H       -0.29603648      -1.60291472      -4.68524184      -0.03913861      -0.04882307      -0.17553174
H       -3.03611969     -14.24151498      -0.10739026       0.03913966       0.04882481      -0.17552483
H       -6.36827586      -9.52512957      -9.04831290       0.03913972      -0.04882327       0.17552722
H       -3.62819265      -6.31930013      -4.47046132      -0.03913802       0.04882240       0.17553484
H       -6.43176216     -14.58734390      -0.21598679       0.53687251       0.47318757      -0.02787805
H       -3.56470635      -1.25708580      -4.79383837      -0.53686720      -0.47319996      -0.02788210
H       -0.23255018      -6.66512905      -4.36186479      -0.53686482       0.47320962       0.02788651
H       -3.09960599      -9.17930065      -8.93971637       0.53686005      -0.47322106       0.02789187
H       -0.23255018      -1.25708580      -8.93971637      -0.53686851      -0.47320068       0.02788281
H       -3.09960599     -14.58734390      -4.36186479       0.53686965       0.47319400       0.02787906
H       -6.43176216      -9.17930065      -4.79383837       0.53686023      -0.47321987      -0.02789128
H       -3.56470635      -6.66512905      -0.21598679      -0.53687090       0.47319567      -0.02788019
C       -0.02979287     -10.48303943      -6.84285013      -0.03488247      -0.20702279      -0.33886164
C       -3.30236330      -5.36139027      -2.26499855       0.03488363       0.20702645      -0.33887267
C       -6.63451947      -2.56082458      -6.89070461       0.03488209      -0.20703137       0.33885926
C       -3.36194904     -13.28360512      -2.31285303      -0.03488637       0.20706886       0.33886665
C       -6.63451947      -5.36139027      -2.31285303       0.03488235       0.20702606       0.33886549
C       -3.36194904     -10.48303943      -6.89070461      -0.03488237      -0.20702209       0.33886135
C       -0.02979287     -13.28360512      -2.26499855      -0.03488658       0.20706896      -0.33887252
C       -3.30236330      -2.56082458      -6.84285013       0.03488407      -0.20703535      -0.33886051
O       -0.07181283     -11.59822537      -7.53467804       0.05394861       0.35017902       0.28439140
O       -3.26034334      -4.24620433      -2.95682646      -0.05394666      -0.35017765       0.28439054
O       -6.59249951      -3.67601052      -6.19887670      -0.05394861       0.35018194      -0.28439105
O       -3.40396900     -12.16841918      -1.62102512       0.05394925      -0.35019913      -0.28440437
O       -6.59249951      -4.24620433      -1.62102512      -0.05394887      -0.35017979      -0.28438914
O       -3.40396900     -11.59822537      -6.19887670       0.05394754       0.35017973      -0.28439024
O       -0.07181283     -12.16841918      -2.95682646       0.05394911      -0.35019684       0.28440300
O       -3.26034334      -3.67601052      -7.53467804      -0.05394816       0.35018426       0.28439412
O       -6.63155471      -9.33657531      -7.46433194       0.02471180      -0.34951973      -0.01406217
O       -3.36491380      -6.50785439      -2.88648036      -0.02471054       0.34951654      -0.01406473
O       -0.03275763      -1.41436046      -6.26922280      -0.02471034      -0.34951711       0.01405987
O       -3.29939854     -14.43006924      -1.69137122       0.02471401       0.34949407       0.01407254
O       -0.03275763      -6.50785439      -1.69137122      -0.02471028       0.34951878       0.01406032
O       -3.29939854      -9.33657531      -6.26922280       0.02471155      -0.34952042       0.01406038
O       -6.63155471     -14.43006924      -2.88648036       0.02471453       0.34949434      -0.01407474
O       -3.36491380      -1.41436046      -7.46433194      -0.02471143      -0.34951586      -0.01406521
O       -0.05008904     -10.53990746      -5.54531779       0.02898897       0.12365204       0.01067004
O       -3.28206713      -5.30452224      -0.96746621      -0.02898825      -0.12365979       0.01068759
O       -6.61422330      -2.61769261      -8.18823695      -0.02898920       0.12365550      -0.01066691
O       -3.38224521     -13.22673709      -3.61038537       0.02898789      -0.12365550      -0.01067638
O       -6.61422330      -5.30452224      -3.61038537      -0.02898909      -0.12365675      -0.01067793
O       -3.38224521     -10.53990746      -8.18823695       0.02898781       0.12365121      -0.01066893
O       -0.05008904     -13.22673709      -0.96746621       0.02898890      -0.12366074       0.01068631
O       -3.28206713      -2.61769261      -5.54531779      -0.02898832       0.12365699       0.01066664
O       -0.66336805     -13.66159823      -6.05227192       0.22450015       0.27337086      -0.32589903
O       -2.66878812      -2.18283147      -1.47442034      -0.22449416      -0.27336201      -0.32589349
O       -6.00094429      -5.73938338      -7.68128282      -0.22449842       0.27337134       0.32589865
O       -3.99552422     -10.10504632      -3.10343124       0.22449499      -0.27336895       0.32589823
O       -6.00094429      -2.18283147      -3.10343124      -0.22449586      -0.27336311       0.32589281
O       -3.99552422     -13.66159823      -7.68128282       0.22449932       0.27337149       0.32590103
O       -0.66336805     -10.10504632      -1.47442034       0.22449712      -0.27336654      -0.32589683
O       -2.66878812      -5.73938338      -6.05227192      -0.22449613       0.27337146      -0.32589984
O       -6.04154868     -14.01748045      -5.42248653      -0.12540540      -0.16956362       0.31859899
O       -3.95491983      -1.82694925      -0.84463495       0.12540886       0.16956985       0.31862268
O       -0.62276366      -6.09526560      -8.31106821       0.12541211      -0.16956842      -0.31861991
O       -2.70939251      -9.74916410      -3.73321663      -0.12540489       0.16956425      -0.31860909
O       -0.62276366      -1.82694925      -3.73321663       0.12540713       0.16956699      -0.31861186
O       -2.70939251     -14.01748045      -8.31106821      -0.12540883      -0.16956726      -0.31861615
O       -6.04154868      -9.74916410      -0.84463495      -0.12540913       0.16956583       0.31861588
O       -3.95491983      -6.09526560      -5.42248653       0.12540564      -0.16956475       0.31860909
O       -6.07773476     -15.45298625      -8.94091448      -0.00219837       0.54263169      -0.24512707
O       -3.91873375      -0.39144345      -4.36306290       0.00219539      -0.54261059      -0.24511766
O       -0.58657758      -7.53077140      -4.79264026       0.00219581       0.54259956       0.24511258
O       -2.74557859      -8.31365830      -0.21478868      -0.00219458      -0.54258382       0.24510312
O       -0.58657758      -0.39144345      -0.21478868       0.00219420      -0.54261303       0.24511382
O       -2.74557859     -15.45298625      -4.79264026      -0.00219855       0.54261881       0.24512063
O       -6.07773476      -8.31365830      -4.36306290      -0.00218976      -0.54258621      -0.24510562
O       -3.91873375      -7.53077140      -8.94091448       0.00220445       0.54261750      -0.24512206
96
Lattice="-6.69948131 0.0 0.0 0.0 0.0 -9.2982619 0.0 -16.09361711 0.0" Properties=species:S:1:pos:R:3:forces:R:3 e_per_atom_relaxed=-5.569216596145833 mp_id=mp-1001112 energy_per_atom=-5.3779793580373125 ef_per_atom_relaxed=-5.569216596145833 corrected_total_energy=-5.3779793580373125 ef_per_atom=-1.1567422977083326 task_id=mp-1001112 calc_id=1 ionic_step=1 energy=-516.286018371582 pbc="T T T"
Na      -5.00008733     -15.92383605      -6.83981094       0.04367753       0.15706387       0.09383862
Na      -5.04913463      -0.16978106      -2.19067999      -0.04368140      -0.15706192       0.09384350
Na      -1.69939398      -7.87702749      -7.10758191      -0.04367665       0.15706536      -0.09384116
Na      -1.65034668      -8.21658962      -2.45845096       0.04367663      -0.15706718      -0.09384079
Na      -1.69939398      -0.16978106      -2.45845096      -0.04367858      -0.15706164      -0.09384136
Na      -1.65034668     -15.92383605      -7.10758191       0.04367793       0.15706487      -0.09384255
Na      -5.00008733      -8.21658962      -2.19067999       0.04367768      -0.15706545       0.09384096
Na      -5.04913463      -7.87702749      -6.83981094      -0.04367697       0.15706599       0.09383840
Na      -5.07630746     -12.07710396      -9.29581860      -0.00710940       0.02805112      -0.05718783
Na      -4.97291450      -4.01651315      -4.64668765       0.00711131      -0.02805057      -0.05718943
Na      -1.62317385      -4.03029540      -4.65157425       0.00711177       0.02804909       0.05719204
Na      -1.72656681     -12.06332171      -0.00244330      -0.00711049      -0.02804881       0.05719095
Na      -1.62317385      -4.01651315      -0.00244330       0.00711152      -0.02804951       0.05719188
Na      -1.72656681     -12.07710396      -4.65157425      -0.00711122       0.02804940       0.05719002
Na      -5.07630746     -12.06332171      -4.64668765      -0.00711004      -0.02805007      -0.05718927
Na      -4.97291450      -4.03029540      -9.29581860       0.00711158       0.02804963      -0.05719024
H       -0.35043627     -13.07860364      -6.77232834      -0.52937818      -0.53539896       0.30440724
H       -2.99930439      -3.01501347      -2.12319739       0.52937680       0.53539765       0.30440652
H       -6.34904504      -5.03179508      -7.17506451       0.52937931      -0.53540373      -0.30441135
H       -3.70017692     -11.06182203      -2.52593356      -0.52937758       0.53540146      -0.30440837
H       -6.34904504      -3.01501347      -2.52593356       0.52938020       0.53540230      -0.30441064
H       -3.70017692     -13.07860364      -7.17506451      -0.52937877      -0.53540170      -0.30440950
H       -0.35043627     -11.06182203      -2.12319739      -0.52937603       0.53539836       0.30440480
H       -2.99930439      -5.03179508      -6.77232834       0.52937812      -0.53540158       0.30440891
H       -6.42401432     -14.47979892      -4.46013745       1.01152074       0.49972409      -2.10073757
H       -3.62520765      -1.61381819      -9.10926840      -1.01151967      -0.49972588      -2.10073686
H       -0.27546699      -6.43299036      -0.18899350      -1.01151955       0.49972594       2.10073900
H       -3.07427366      -9.66062675      -4.83812445       1.01152074      -0.49972516       2.10073733
H       -0.27546699      -1.61381819      -4.83812445      -1.01152050      -0.49972513       2.10073924
H       -3.07427366     -14.47979892      -0.18899350       1.01152194       0.49972558       2.10073900
H       -6.42401432      -9.66062675      -9.10926840       1.01151967      -0.49972457      -2.10073638
H       -3.62520765      -6.43299036      -4.46013745      -1.01152003       0.49972576      -2.10073709
H       -6.48269735     -14.70805919      -0.26366533       1.52839196      -1.41188002       1.02039611
H       -3.56652462      -1.38555792      -4.91279628      -1.52839112       1.41187823       1.02039397
H       -0.21678396      -6.66125064      -4.38546562      -1.52838993      -1.41188145      -1.02039540
H       -3.13295669      -9.43236647      -9.03459657       1.52839160       1.41188037      -1.02039349
H       -0.21678396      -1.38555792      -9.03459657      -1.52839112       1.41188109      -1.02039337
H       -3.13295669     -14.70805919      -4.38546562       1.52839327      -1.41188061      -1.02039587
H       -6.48269735      -9.43236647      -4.91279628       1.52839017       1.41187978       1.02039516
H       -3.56652462      -6.66125064      -0.26366533      -1.52839065      -1.41188061       1.02039552
C       -0.03033525     -10.63904705      -6.94213543      -0.18095611      -0.93480486      -0.99497592
C       -3.31940540      -5.45457006      -2.29300448       0.18095329       0.93479329      -0.99497068
C       -6.66914606      -2.59223850      -7.00525742       0.18095307      -0.93478972       0.99497759
C       -3.38007591     -13.50137861      -2.35612647      -0.18095523       0.93480331       0.99497253
C       -6.66914606      -5.45457006      -2.35612647       0.18095341       0.93479401       0.99497336
C       -3.38007591     -10.63904705      -7.00525742      -0.18095535      -0.93480551       0.99497265
C       -0.03033525     -13.50137861      -2.29300448      -0.18095592       0.93480319      -0.99497002
C       -3.31940540      -2.59223850      -6.94213543       0.18095301      -0.93478954      -0.99497855
O       -0.07286255     -11.81430034      -7.66781642       0.19301127       2.78827786       1.75912046
O       -3.27687810      -4.27931677      -3.01868547      -0.19301108      -2.78827381       1.75911641
O       -6.62661876      -3.76749179      -6.27957643      -0.19301100       2.78827620      -1.75911796
O       -3.42260321     -12.32612532      -1.63044548       0.19301151      -2.78827548      -1.75911903
O       -6.62661876      -4.27931677      -1.63044548      -0.19301063      -2.78827214      -1.75911486
O       -3.42260321     -11.81430034      -6.27957643       0.19301130       2.78827739      -1.75912046
O       -0.07286255     -12.32612532      -3.01868547       0.19301142      -2.78827763       1.75912106
O       -3.27687810      -3.76749179      -7.66781642      -0.19301163       2.78827763       1.75911713
O       -6.66626200      -9.46053078      -7.59084754       0.08451259      -2.48896670       0.59963334
O       -3.38295997      -6.63308633      -2.94171659      -0.08451261       2.48897409       0.59963822
O       -0.03321931      -1.41372223      -6.35654531      -0.08451267      -2.48897982      -0.59964615
O       -3.31652134     -14.67989488      -1.70741436       0.08451331       2.48896551      -0.59963691
O       -0.03321931      -6.63308633      -1.70741436      -0.08451287       2.48897696      -0.59963924
O       -3.31652134      -9.46053078      -6.35654531       0.08451396      -2.48896646      -0.59963655
O       -6.66626200     -14.67989488      -2.94171659       0.08451316       2.48896503       0.59963602
O       -3.38295997      -1.41372223      -7.59084754      -0.08451232      -2.48898077       0.59964311
O       -0.05347010     -10.70490648      -5.60958627       0.26481554       0.92444098      -1.68921316
O       -3.29627055      -5.38871063      -0.96045532      -0.26481622      -0.92444074      -1.68921566
O       -6.64601121      -2.65809792      -8.33780658      -0.26481667       0.92443985       1.68921375
O       -3.40321076     -13.43551919      -3.68867563       0.26481557      -0.92444003       1.68921208
O       -6.64601121      -5.38871063      -3.68867563      -0.26481658      -0.92444050       1.68921185
O       -3.40321076     -10.70490648      -8.33780658       0.26481539       0.92443967       1.68921089
O       -0.05347010     -13.43551919      -0.96045532       0.26481569      -0.92444158      -1.68921614
O       -3.29627055      -2.65809792      -5.60958627      -0.26481622       0.92444319      -1.68921447
O       -0.65730065     -13.87917499      -6.15018331      -0.09264397       0.95609790      -1.05998147
O       -2.69244001      -2.21444212      -1.50105236       0.09264356      -0.95609611      -1.05997801
O       -6.04218066      -5.83236643      -7.79720954       0.09264114       0.95610011       1.05998218
O       -4.00704130     -10.26125068      -3.14807859      -0.09264167      -0.95609868       1.05998087
O       -6.04218066      -2.21444212      -3.14807859       0.09264074      -0.95610189       1.05998325
O       -4.00704130     -13.87917499      -7.79720954      -0.09264158       0.95610017       1.05998087
O       -0.65730065     -10.26125068      -1.50105236      -0.09264369      -0.95609426      -1.05997729
O       -2.69244001      -5.83236643      -6.15018331       0.09264271       0.95609784      -1.05998135
O       -6.05545381     -14.22314660      -5.58420015      -0.65867758      -0.84666771       3.25344229
O       -3.99376816      -1.87047051      -0.93506920       0.65867972       0.84666526       3.25344348
O       -0.64402750      -6.17633805      -8.36319270       0.65868086      -0.84666651      -3.25344014
O       -2.70571315      -9.91727906      -3.71406175      -0.65867996       0.84666753      -3.25344014
O       -0.64402750      -1.87047051      -3.71406175       0.65867960       0.84666574      -3.25344205
O       -2.70571315     -14.22314660      -8.36319270      -0.65867925      -0.84666896      -3.25344133
O       -6.05545381      -9.91727906      -0.93506920      -0.65868104       0.84666616       3.25344419
O       -3.99376816      -6.17633805      -5.58420015       0.65867925      -0.84666526       3.25344086
O       -6.08582008     -15.77497942      -9.04425031      -0.81090939       3.92594194      -1.51569104
O       -3.96340189      -0.31863769      -4.39511936       0.81091094      -3.92594194      -1.51569200
O       -0.61366123      -7.72817087      -4.90314254       0.81091332       3.92594099       1.51569164
O       -2.73607942      -8.36544624      -0.25401159      -0.81090981      -3.92594528       1.51569259
O       -0.61366123      -0.31863769      -0.25401159       0.81090963      -3.92594290       1.51569140
O       -2.73607942     -15.77497942      -4.90314254      -0.81091118       3.92594194       1.51569152
O       -6.08582008      -8.36544624      -4.39511936      -0.81091350      -3.92594147      -1.51569390
O       -3.96340189      -7.72817087      -9.04425031       0.81090927       3.92594385      -1.51568925
96
Lattice="-6.6521 0.0 0.0 0.0 0.0 -9.1062 0.0 -15.7579 0.0" Properties=species:S:1:pos:R:3:forces:R:3 e_per_atom_relaxed=-5.569216596145833 mp_id=mp-1001112 energy_per_atom=-5.452155431111653 ef_per_atom_relaxed=-5.569216596145833 corrected_total_energy=-5.452155431111653 ef_per_atom=-1.2288732671875 task_id=mp-1001112 calc_id=1 ionic_step=0 energy=-523.4069213867188 pbc="T T T"
Na      -4.96472831     -15.58661163      -6.69924922      -0.05493397      -0.11554141       0.05202868
Na      -5.01342169      -0.17128837      -2.14614922       0.05493618       0.11553802       0.05202745
Na      -1.68737169      -7.70766163      -6.96005078       0.05493321      -0.11553956      -0.05202582
Na      -1.63867831      -8.05023837      -2.40695078      -0.05493374       0.11554091      -0.05202989
Na      -1.68737169      -0.17128837      -2.40695078       0.05493388       0.11554061      -0.05202916
Na      -1.63867831     -15.58661163      -6.96005078      -0.05493452      -0.11554036      -0.05202612
Na      -4.96472831      -8.05023837      -2.14614922      -0.05493534       0.11553846       0.05202585
Na      -5.01342169      -7.70766163      -6.69924922       0.05493465      -0.11554178       0.05203013
Na      -5.04016313     -11.82441300      -9.10474301       0.03563625       0.09221216      -0.02573675
Na      -4.93798687      -3.93348700      -4.55164301      -0.03563214      -0.09221447      -0.02573653
Na      -1.61193687      -3.94546300      -4.55455699      -0.03563382       0.09221315       0.02573757
Na      -1.71411313     -11.81243700      -0.00145699       0.03563403      -0.09221607       0.02573483
Na      -1.61193687      -3.93348700      -0.00145699      -0.03563441      -0.09221610       0.02573359
Na      -1.71411313     -11.82441300      -4.55455699       0.03563441       0.09221186       0.02574116
Na      -5.04016313     -11.81243700      -4.55164301       0.03563472      -0.09221496      -0.02573676
Na      -4.93798687      -3.94546300      -9.10474301      -0.03563449       0.09221455      -0.02573594
H       -0.34125273     -12.81905165      -6.63113484      -0.19028944       0.14393032      -0.10097027
H       -2.98479727      -2.93884835      -2.07803484       0.19028600      -0.14393830      -0.10097611
H       -6.31084727      -4.94010165      -7.02816516       0.19028398       0.14394510       0.10097980
H       -3.66730273     -10.81779835      -2.47506516      -0.19028758      -0.14393270       0.10097164
H       -6.31084727      -2.93884835      -2.47506516       0.19028437      -0.14394152       0.10097927
H       -3.66730273     -12.81905165      -7.02816516      -0.19028717       0.14393806       0.10097319
H       -0.34125273     -10.81779835      -2.07803484      -0.19028893      -0.14392781      -0.10096854
H       -2.98479727      -4.94010165      -6.63113484       0.19028583       0.14393985      -0.10097754
H       -6.34876424     -14.15847315      -4.47569730      -0.52484941      -0.43582532       2.33665681
H       -3.62938576      -1.59942685      -9.02879730       0.52484286       0.43581635       2.33663082
H       -0.30333576      -6.27952315      -0.07740270       0.52484185      -0.43581983      -2.33663201
H       -3.02271424      -9.47837685      -4.63050270      -0.52484685       0.43582648      -2.33664727
H       -0.30333576      -1.59942685      -4.63050270       0.52484667       0.43582368      -2.33665013
H       -3.02271424     -14.15847315      -0.07740270      -0.52484208      -0.43581864      -2.33663678
H       -6.34876424      -9.47837685      -9.02879730      -0.52484238       0.43582004       2.33662462
H       -3.62938576      -6.27952315      -4.47569730       0.52484894      -0.43582624       2.33665347
H       -6.41395482     -14.54769328      -0.19851516      -0.29181683       3.03088927      -1.25129890
H       -3.56419518      -1.21020672      -4.75161516       0.29182044      -3.03089738      -1.25130010
H       -0.23814518      -6.66874328      -4.35458484       0.29181722       3.03088641       1.25129843
H       -3.08790482      -9.08915672      -8.90768484      -0.29182062      -3.03089905       1.25129795
H       -0.23814518      -1.21020672      -8.90768484       0.29182303      -3.03090453       1.25130320
H       -3.08790482     -14.54769328      -4.35458484      -0.29181778       3.03088498       1.25129664
H       -6.41395482      -9.08915672      -4.75161516      -0.29181832      -3.03089333      -1.25129819
H       -3.56419518      -6.66874328      -0.19851516       0.29181701       3.03088951      -1.25129938
C       -0.02960184     -10.42905096      -6.80852362       0.04445418       0.21728185       0.03085942
C       -3.29644815      -5.32884904      -2.25542362      -0.04445504      -0.21725953       0.03084501
C       -6.62249816      -2.55010096      -6.85077638      -0.04445097       0.21725728      -0.03085751
C       -3.35565184     -13.20779904      -2.29767638       0.04445219      -0.21723694      -0.03085648
C       -6.62249816      -5.32884904      -2.29767638      -0.04445137      -0.21726003      -0.03085832
C       -3.35565184     -10.42905096      -6.85077638       0.04445451       0.21728092      -0.03085814
C       -0.02960184     -13.20779904      -2.25542362       0.04445147      -0.21723980       0.03084631
C       -3.29644815      -2.55010096      -6.80852362      -0.04445541       0.21725702       0.03085904
O       -0.07144355     -11.52249164      -7.48811932      -0.02710333      -0.71369326      -0.39293638
O       -3.25460645      -4.23540836      -2.93501932       0.02710206       0.71367806      -0.39292568
O       -6.58065645      -3.64354164      -6.17118068       0.02710314      -0.71368027       0.39293051
O       -3.39749355     -12.11435836      -1.61808068      -0.02710188       0.71366775       0.39292011
O       -6.58065645      -4.23540836      -1.61808068       0.02710342       0.71368009       0.39292800
O       -3.39749355     -11.52249164      -6.17118068      -0.02710492      -0.71369416       0.39293689
O       -0.07144355     -12.11435836      -2.93501932      -0.02710170       0.71367043      -0.39292058
O       -3.25460645      -3.64354164      -7.48811932       0.02710116      -0.71368074      -0.39292985
O       -6.61950471      -9.29400942      -7.42018707      -0.01542670       0.57101208      -0.19898994
O       -3.35864529      -6.46389058      -2.86708707       0.01542638      -0.57102048      -0.19899517
O       -0.03259529      -1.41505942      -6.23911293       0.01542693       0.57102698       0.19899407
O       -3.29345471     -14.34284058      -1.68601293      -0.01542297      -0.57103401       0.19900653
O       -0.03259529      -6.46389058      -1.68601293       0.01542549      -0.57102275       0.19899960
O       -3.29345471      -9.29400942      -6.23911293      -0.01542719       0.57101363       0.19898866
O       -6.61950471     -14.34284058      -2.86708707      -0.01542559      -0.57103264      -0.19900206
O       -3.35864529      -1.41505942      -7.42018707       0.01542501       0.57102579      -0.19899672
O       -0.04889293     -10.48262782      -5.52345667      -0.03183984       0.02997082       0.80705702
O       -3.27715706      -5.27527218      -0.97035667       0.03184072      -0.02997160       0.80706191
O       -6.60320707      -2.60367782      -8.13584333       0.03184034       0.02997524      -0.80705959
O       -3.37494293     -13.15422218      -3.58274333      -0.03183967      -0.02996832      -0.80705512
O       -6.60320707      -5.27527218      -3.58274333       0.03183986      -0.02997053      -0.80705500
O       -3.37494293     -10.48262782      -8.13584333      -0.03183942       0.02997231      -0.80705774
O       -0.04889293     -13.15422218      -0.97035667      -0.03184165      -0.02996987       0.80706179
O       -3.27715706      -2.60367782      -5.52345667       0.03183953       0.02997112       0.80705851
O       -0.66554260     -13.58598864      -6.01819652       0.17134041      -0.00692256      -0.05078125
O       -2.66050740      -2.17191136      -1.46509652      -0.17133468       0.00693609      -0.05077224
O       -5.98655740      -5.70703864      -7.64110348      -0.17133692      -0.00694400       0.05076589
O       -3.99159260     -10.05086136      -3.08800348       0.17133546       0.00693141       0.05077785
O       -5.98655740      -2.17191136      -3.08800348      -0.17133698       0.00693949       0.05076868
O       -3.99159260     -13.58598864      -7.64110348       0.17133576      -0.00692894       0.05077906
O       -0.66554260     -10.05086136      -1.46509652       0.17133895       0.00692911      -0.05077892
O       -2.66050740      -5.70703864      -6.01819652      -0.17133707      -0.00693773      -0.05077104
O       -6.03684727     -13.94637182      -5.36473561       0.50066376       0.34578693      -2.06951332
O       -3.94130273      -1.81152818      -0.81163561      -0.50065529      -0.34578204      -2.06948996
O       -0.61525273      -6.06742182      -8.29456439      -0.50065076       0.34578449       2.06948900
O       -2.71079727      -9.69047818      -3.74146439       0.50066018      -0.34578758       2.06950665
O       -0.61525273      -1.81152818      -3.74146439      -0.50065851      -0.34578815       2.06951189
O       -2.71079727     -13.94637182      -8.29456439       0.50065577       0.34578127       2.06948924
O       -6.03684727      -9.69047818      -0.81163561       0.50065255      -0.34578323      -2.06948495
O       -3.94130273      -6.06742182      -5.36473561      -0.50066167       0.34578800      -2.06951284
O       -6.07509685     -15.33952776      -8.90577254       0.74454093      -2.05312157       0.97567493
O       -3.90305315      -0.41837224      -4.35267254      -0.74454415       2.05313540       0.97567803
O       -0.57700315      -7.46057775      -4.75352746      -0.74454141      -2.05312324      -0.97567338
O       -2.74904685      -8.29732224      -0.20042746       0.74454242       2.05313182      -0.97567606
O       -0.57700315      -0.41837224      -0.20042746      -0.74454546       2.05313468      -0.97568035
O       -2.74904685     -15.33952776      -4.75352746       0.74453920      -2.05312204      -0.97567236
O       -6.07509685      -8.29732224      -4.35267254       0.74454355       2.05313087       0.97567719
O       -3.90305315      -7.46057775      -8.90577254      -0.74453938      -2.05312300       0.97567391
96
Lattice="6.871644 0.0 0.0 0.0 9.158787 0.0 0.0 0.0 15.92961" Properties=species:S:1:pos:R:3:forces:R:3 bandgap=3.8318000000000003 e_per_atom_relaxed=-5.569216596145833 mp_id=mp-1001112 energy_per_atom=-5.482666571935018 ef_per_atom_relaxed=-5.569216596145833 corrected_total_energy=-5.482666571935018 ef_per_atom=-1.2594585801041671 task_id=mp-1337598 calc_id=0 ionic_step=0 energy=-526.3359909057617 pbc="T T T"
Na       1.73848470       7.01037370       8.14152809       0.03838760       0.00695247       0.04850031
Na       1.69733730       2.43098020       7.78808191      -0.03838967       0.00695303      -0.04850001
Na       5.13315930       6.72780680       0.17672309      -0.03838623      -0.00694780       0.04849952
Na       5.17430670       2.14841330      15.75288691       0.03838810      -0.00695250      -0.04849958
Na       5.13315930       2.14841330       7.78808191      -0.03838880      -0.00695260      -0.04849964
Na       5.17430670       6.72780680       8.14152809       0.03838678      -0.00695075       0.04850012
Na       1.73848470       2.43098020      15.75288691       0.03838716       0.00695032      -0.04849982
Na       1.69733730       7.01037370       0.17672309      -0.03838810       0.00695112       0.04850028
Na       1.66330205       4.58783790      11.94317731      -0.01390437       0.01515672      -0.01418481
Na       1.77251995       0.00844440       3.98643269       0.01390336       0.01515809       0.01418290
Na       5.20834195       9.15034260       3.97837231       0.01390461      -0.01515774      -0.01418498
Na       5.09912405       4.57094910      11.95123769      -0.01390577      -0.01515996       0.01418241
Na       5.20834195       4.57094910       3.98643269       0.01390523      -0.01516223       0.01418204
Na       5.09912405       9.15034260      11.94317731      -0.01390442      -0.01515539      -0.01418470
Na       1.66330205       0.00844440      11.95123769      -0.01390485       0.01515780       0.01418326
Na       1.77251995       4.58783790       3.97837231       0.01390417       0.01515937      -0.01418479
H        6.50970077       7.09397511      10.96858784       0.02955931      -0.00909001       0.00223172
H        3.79776523       2.51458161       4.96102216      -0.02956290      -0.00909716      -0.00224113
H        0.36194323       6.64420539       3.00378284      -0.02956131       0.00909561       0.00223839
H        3.07387877       2.06481189      12.92582716       0.02955831       0.00908947      -0.00222707
H        0.36194323       2.06481189       4.96102216      -0.02956158       0.00909615      -0.00223863
H        3.07387877       6.64420539      10.96858784       0.02955840       0.00908995       0.00223088
H        6.50970077       2.51458161      12.92582716       0.02955883      -0.00908971      -0.00222838
H        3.79776523       7.09397511       3.00378284      -0.02956306      -0.00909716       0.00224113
H        0.30556827       0.15235642       9.62334820       0.01728421       0.01712918      -0.03094643
H        3.13025373       4.73174992       6.30626180      -0.01728843       0.01711655       0.03094294
H        6.56607573       4.42703708       1.65854320      -0.01728456      -0.01713252      -0.03094693
H        3.74139027       9.00643058      14.27106680       0.01728334      -0.01713383       0.03094695
H        6.56607573       9.00643058       6.30626180      -0.01728527      -0.01712835       0.03094555
H        3.74139027       4.42703708       9.62334820       0.01728342      -0.01713133      -0.03094576
H        0.30556827       4.73174992      14.27106680       0.01728573       0.01712537       0.03094578
H        3.13025373       0.15235642       1.65854320      -0.01728563       0.01712847      -0.03094595
H        0.29395519       4.30958479       9.27253040      -0.01817489       0.02501279       0.02296543
H        3.14186681       8.88897829       6.65707960       0.01818134       0.02500516      -0.02297986
H        6.57768881       0.26980871       1.30772540       0.01817909      -0.02500850       0.02297485
H        3.72977719       4.84920221      14.62188460      -0.01817605      -0.02501345      -0.02296436
H        6.57768881       4.84920221       6.65707960       0.01817922      -0.02500892      -0.02297306
H        3.72977719       0.26980871       9.27253040      -0.01817739      -0.02501082       0.02296984
H        0.29395519       8.88897829      14.62188460      -0.01817736       0.02501124      -0.02296877
H        3.14186681       4.30958479       1.30772540       0.01817685       0.02501178       0.02296686
C        6.84385507       6.88696820      13.35074951      -0.00646115       0.03979404       0.01551186
C        3.46361093       2.30757470       2.57886049       0.00645950       0.03977805      -0.01553054
C        0.02778893       6.85121230       5.38594451       0.00646069      -0.03978622       0.01553150
C        3.40803307       2.27181880      10.54366549      -0.00646001      -0.03977951      -0.01553165
C        0.02778893       2.27181880       2.57886049       0.00646039      -0.03977893      -0.01553010
C        3.40803307       6.85121230      13.35074951      -0.00646108      -0.03979688       0.01550939
C        6.84385507       2.30757470      10.54366549      -0.00645958       0.03977783      -0.01553506
C        3.46361093       6.88696820       5.38594451       0.00646012       0.03978415       0.01553127
O        6.78497195       6.21713116      12.23618656      -0.05225070      -0.05529135      -0.03874588
O        3.52249405       1.63773766       3.69342344       0.05224759      -0.05529258       0.03873357
O        0.08667205       7.52104934       4.27138156       0.05224764       0.05529343      -0.03873280
O        3.34914995       2.94165584      11.65822844      -0.05224614       0.05529295       0.03873304
O        0.08667205       2.94165584       3.69342344       0.05224685       0.05529377       0.03873542
O        3.34914995       7.52104934      12.23618656      -0.05224986       0.05529489      -0.03874716
O        6.78497195       1.63773766      11.65822844      -0.05224824      -0.05529389       0.03873292
O        3.52249405       6.21713116       4.27138156       0.05224634      -0.05529125      -0.03873265
O        0.04551777       6.25498442      14.48625990      -0.00486945       0.04465924       0.05634766
O        3.39030423       1.67559092       1.44335010       0.00487031       0.04466775      -0.05632327
O        6.82612623       7.48319608       6.52145490       0.00487106      -0.04466972       0.05632238
O        3.48133977       2.90380258       9.40815510      -0.00487080      -0.04466879      -0.05632124
O        6.82612623       2.90380258       1.44335010       0.00487041      -0.04466970      -0.05632351
O        3.48133977       7.48319608      14.48625990      -0.00486980      -0.04465853       0.05635044
O        0.04551777       1.67559092       9.40815510      -0.00486992       0.04466882      -0.05631808
O        3.39030423       6.25498442       6.52145490       0.00487028       0.04466851       0.05632205
O        6.83016676       8.18605971      13.31242287      -0.04253553       0.00203872       0.00413668
O        3.47729924       3.60666621       2.61718713       0.04253554       0.00204101      -0.00413579
O        0.04147724       5.55212079       5.34761787       0.04253506      -0.00203374       0.00413358
O        3.39434476       0.97272729      10.58199213      -0.04253429      -0.00204027      -0.00413144
O        0.04147724       0.97272729       2.61718713       0.04253419      -0.00204235      -0.00413373
O        3.39434476       5.55212079      13.31242287      -0.04253427      -0.00204071       0.00413924
O        6.83016676       3.60666621      10.58199213      -0.04253474       0.00204018      -0.00413361
O        3.47729924       8.18605971       5.34761787       0.04253582       0.00203428       0.00413287
O        6.21361537       7.67494444      10.16449299      -0.04132608      -0.00887917      -0.04740831
O        4.09385063       3.09555094       5.76511701       0.04132867      -0.00886688       0.04742453
O        0.65802863       6.06323606       2.19968799       0.04132715       0.00886712      -0.04742348
O        2.77779337       1.48384256      13.72992201      -0.04132712       0.00887506       0.04741305
O        0.65802863       1.48384256       5.76511701       0.04132959       0.00887012       0.04742062
O        2.77779337       6.06323606      10.16449299      -0.04132536       0.00887790      -0.04741010
O        6.21361537       3.09555094      13.72992201      -0.04132602      -0.00887528       0.04741415
O        4.09385063       7.67494444       2.19968799       0.04132849      -0.00886555      -0.04742721
O        0.61339730       8.33808641       9.80348023       0.02241316      -0.03210676       0.01206055
O        2.82242470       3.75869291       6.12612977      -0.02240610      -0.03209749      -0.01205820
O        6.25824670       5.40009409       1.83867523      -0.02241120       0.03211429       0.01206234
O        4.04921930       0.82070059      14.09093477       0.02241376       0.03211650      -0.01206163
O        6.25824670       0.82070059       6.12612977      -0.02241236       0.03211082      -0.01205990
O        4.04921930       5.40009409       9.80348023       0.02241319       0.03211097       0.01206040
O        0.61339730       3.75869291      14.09093477       0.02241123      -0.03210684      -0.01205987
O        2.82242470       8.33808641       1.83867523      -0.02240744      -0.03210701       0.01206219
O        0.58759428       4.75437213       8.38337143      -0.03316197      -0.01391056      -0.06726930
O        2.84822772       0.17497863       7.54623857       0.03315181      -0.01389673       0.06728441
O        6.28404972       8.98380837       0.41856643       0.03316355       0.01390120      -0.06728369
O        4.02341628       4.40441487      15.51104357      -0.03316242       0.01390859       0.06726630
O        6.28404972       4.40441487       7.54623857       0.03316262       0.01390377       0.06727853
O        4.02341628       8.98380837       8.38337143      -0.03315467       0.01390299      -0.06727247
O        0.58759428       0.17497863      15.51104357      -0.03316456      -0.01390553       0.06727557
O        2.84822772       4.75437213       0.41856643       0.03316092      -0.01390618      -0.06727123
4
Lattice="0.0 0.0 -3.92804371 0.0 -3.32612002 0.0 -4.6853228 1.66306001 0.0" Properties=species:S:1:pos:R:3:forces:R:3 bandgap=0.0 e_per_atom_relaxed=-4.9354900675 mp_id=mp-1001113 energy_per_atom=-4.9293012619018555 ef_per_atom_relaxed=-4.9354900675 corrected_total_energy=-4.9293012619018555 ef_per_atom=0.49051872000000074 task_id=mp-1097874 calc_id=0 ionic_step=2 energy=-19.717205047607422 pbc="T T T"
Si      -3.65813053      -0.82912549       0.00000000       0.01345621      -0.01478885      -0.00000000
Si      -1.12472031      -0.83393617       0.00000000       0.02581966       0.01478723      -0.00000000
Si      -0.93779631      -2.49218550      -1.96402185      -0.01345624      -0.01478620       0.00000001
Si      -3.47120653       0.82912381      -1.96402185      -0.02581961       0.01478772      -0.00000000
4
Lattice="0.0 0.0 -3.93312074 0.0 -3.32733978 0.0 -4.68116141 1.66366989 0.0" Properties=species:S:1:pos:R:3:forces:R:3 e_per_atom_relaxed=-4.9354900675 mp_id=mp-1001113 energy_per_atom=-4.929139971733093 ef_per_atom_relaxed=-4.9354900675 corrected_total_energy=-4.929139971733093 ef_per_atom=0.4901296275 task_id=mp-1097874 calc_id=0 ionic_step=1 energy=-19.716559886932373 pbc="T T T"
Si      -3.65467854      -0.82949511       0.00000000      -0.00883883      -0.01395830      -0.00000000
Si      -1.12483379      -0.83417641       0.00000000       0.04609048       0.01395840      -0.00000001
Si      -0.93716631      -2.49316503      -1.96656037       0.00883852      -0.01395879      -0.00000001
Si      -3.46701106       0.82949345      -1.96656037      -0.04609033       0.01395859      -0.00000000
4
Lattice="0.0 0.0 -3.93804056 0.0 -3.32852176 0.0 -4.67712888 1.66426088 0.0" Properties=species:S:1:pos:R:3:forces:R:3 e_per_atom_relaxed=-4.9354900675 mp_id=mp-1001113 energy_per_atom=-4.929003834724426 ef_per_atom_relaxed=-4.9354900675 corrected_total_energy=-4.929003834724426 ef_per_atom=0.4897672875000003 task_id=mp-1097874 calc_id=0 ionic_step=0 energy=-19.716015338897705 pbc="T T T"
Si      -3.65133358      -0.82985333       0.00000000      -0.03029528      -0.01316726      -0.00000000
Si      -1.12494280      -0.83440920       0.00000000       0.06590705       0.01316726      -0.00000001
Si      -0.93655568      -2.49411421      -1.96902028       0.03029485      -0.01316711      -0.00000000
Si      -3.46294646       0.82985168      -1.96902028      -0.06590644       0.01316706      -0.00000000
4
Lattice="0.0 0.0 -3.94035878 0.0 -3.30410873 0.0 -4.6665403 1.65205436 0.0" Properties=species:S:1:pos:R:3:forces:R:3 e_per_atom_relaxed=-4.9354900675 mp_id=mp-1001113 energy_per_atom=-4.924674034118652 ef_per_atom_relaxed=-4.9354900675 corrected_total_energy=-4.924674034118652 ef_per_atom=0.4886371975000001 task_id=mp-1097874 calc_id=1 ionic_step=2 energy=-19.69869613647461 pbc="T T T"
Si      -3.64377051      -0.82371631       0.00000000      -0.05906938      -0.01040550      -0.00000000
Si      -1.12343696      -0.82833971       0.00000000       0.02795307       0.01040547      -0.00000001
Si      -0.93373220      -2.47577067      -1.97017939       0.05906951      -0.01040518       0.00000001
Si      -3.45406575       0.82371465      -1.97017939      -0.02795323       0.01040524      -0.00000001
4
Lattice="0.0 0.0 -3.96366587 0.0 -3.28519398 0.0 -4.6892576 1.64259699 0.0" Properties=species:S:1:pos:R:3:forces:R:3 e_per_atom_relaxed=-4.9354900675 mp_id=mp-1001113 energy_per_atom=-4.913485765457153 ef_per_atom_relaxed=-4.9354900675 corrected_total_energy=-4.913485765457153 ef_per_atom=0.4871726325000001 task_id=mp-1097874 calc_id=1 ionic_step=1 energy=-19.653943061828613 pbc="T T T"
Si      -3.66435020      -0.81886413       0.00000000      -0.00172868      -0.00921726      -0.00000000
Si      -1.12816996      -0.82373448       0.00000000       0.03096329       0.00921706      -0.00000002
Si      -0.93543636      -2.46146112      -1.98183293       0.00173022      -0.00921729       0.00000000
Si      -3.47161660       0.81886251      -1.98183293      -0.03096464       0.00921752      -0.00000000
4
Lattice="0.0 0.0 -3.991753 0.0 -3.2624 0.0 -4.716634 1.6312 0.0" Properties=species:S:1:pos:R:3:forces:R:3 e_per_atom_relaxed=-4.9354900675 mp_id=mp-1001113 energy_per_atom=-4.902918457984924 ef_per_atom_relaxed=-4.9354900675 corrected_total_energy=-4.902918457984924 ef_per_atom=0.48715565750000067 task_id=mp-1097874 calc_id=1 ionic_step=0 energy=-19.611673831939697 pbc="T T T"
Si      -3.68916717      -0.81301781       0.00000000       0.06091650      -0.00790190      -0.00000000
Si      -1.13386938      -0.81818382       0.00000000       0.04063824       0.00790190       0.00000001
Si      -0.93747346      -2.44421781      -1.99587650      -0.06091607      -0.00790156      -0.00000000
Si      -3.49277124       0.81301618      -1.99587650      -0.04063863       0.00790163      -0.00000000
4
Lattice="0.0 0.0 -3.93427654 0.0 -3.33376306 0.0 -4.67731113 1.66688153 0.0" Properties=species:S:1:pos:R:3:forces:R:3 e_per_atom_relaxed=-4.9354900675 mp_id=mp-1001113 energy_per_atom=-4.930950880050659 ef_per_atom_relaxed=-4.9354900675 corrected_total_energy=-4.930950880050659 ef_per_atom=0.49025558500000077 task_id=mp-1120444 calc_id=1 ionic_step=3 energy=-19.723803520202637 pbc="T T T"
Si      -3.65065902      -0.83117714       0.00000000      -0.03076158      -0.01354295      -0.00000000
Si      -1.12520404      -0.83570604       0.00000000       0.07072169       0.01354303      -0.00000003
Si      -0.93740902      -2.49805867      -1.96713827       0.03076155      -0.01354333      -0.00000002
Si      -3.46286399       0.83117549      -1.96713827      -0.07072143       0.01354331      -0.00000000
4
Lattice="0.0 0.0 -3.97631305 0.0 -3.34540137 0.0 -4.67438467 1.67270069 0.0" Properties=species:S:1:pos:R:3:forces:R:3 e_per_atom_relaxed=-4.9354900675 mp_id=mp-1001113 energy_per_atom=-4.922966361045837 ef_per_atom_relaxed=-4.9354900675 corrected_total_energy=-4.922966361045837 ef_per_atom=0.480279715 task_id=mp-1001113 calc_id=1 ionic_step=15 energy=-19.69186544418335 pbc="T T T"
Si      -3.67628472      -0.81473242       0.00000000       0.11596134      -0.13829029      -0.00000001
Si      -1.12336229      -0.85796827       0.00000000      -0.00765930       0.13829051      -0.00000000
Si      -0.90891269      -2.48743311      -1.98815652      -0.11596087      -0.13829058       0.00000000
Si      -3.46183512       0.81473241      -1.98815652       0.00765896       0.13829042      -0.00000001
4
Lattice="0.0 0.0 -3.99375215 0.0 -3.32103866 0.0 -4.63189599 1.66051933 0.0" Properties=species:S:1:pos:R:3:forces:R:3 e_per_atom_relaxed=-4.9354900675 mp_id=mp-1001113 energy_per_atom=-4.922936916351318 ef_per_atom_relaxed=-4.9354900675 corrected_total_energy=-4.922936916351318 ef_per_atom=0.48387921000000045 task_id=mp-1001113 calc_id=1 ionic_step=14 energy=-19.691747665405273 pbc="T T T"
Si      -3.67766099      -0.82360973       0.00000000       0.37472525      -0.05556677      -0.00000000
Si      -1.09080192      -0.83690960       0.00000000      -0.28047276       0.05556627       0.00000000
Si      -0.86585843      -2.48412906      -1.99687608      -0.37472758      -0.05556528       0.00000001
Si      -3.45271750       0.82360973      -1.99687608       0.28047502       0.05556585      -0.00000000
4
Lattice="0.0 0.0 -4.00268685 0.0 -3.30855673 0.0 -4.61012744 1.65427837 0.0" Properties=species:S:1:pos:R:3:forces:R:3 e_per_atom_relaxed=-4.9354900675 mp_id=mp-1001113 energy_per_atom=-4.9196308851242065 ef_per_atom_relaxed=-4.9354900675 corrected_total_energy=-4.9196308851242065 ef_per_atom=0.4906247825000003 task_id=mp-1001113 calc_id=1 ionic_step=13 energy=-19.678523540496826 pbc="T T T"
Si      -3.67820258      -0.82810225       0.00000000       0.59192908       0.00911245      -0.00000000
Si      -1.07422502      -0.82617611       0.00000000      -0.44193152      -0.00911256      -0.00000000
Si      -0.84396363      -2.48238062      -2.00134342      -0.59192896       0.00911277       0.00000000
Si      -3.44794119       0.82810226      -2.00134342       0.44193101      -0.00911266       0.00000001
4
Lattice="0.0 0.0 -3.9819661 0.0 -3.32433427 0.0 -4.60586701 1.66216714 0.0" Properties=species:S:1:pos:R:3:forces:R:3 e_per_atom_relaxed=-4.9354900675 mp_id=mp-1001113 energy_per_atom=-4.925856828689575 ef_per_atom_relaxed=-4.9354900675 corrected_total_energy=-4.925856828689575 ef_per_atom=0.4915217400000005 task_id=mp-1001113 calc_id=1 ionic_step=12 energy=-19.7034273147583 pbc="T T T"
Si      -3.67335350      -0.82385816       0.00000000       0.63451338      -0.07389165      -0.00000000
Si      -1.07281922      -0.83830896       0.00000000      -0.44388127       0.07389057       0.00000000
Si      -0.84463356      -2.48602533      -1.99098305      -0.63451409      -0.07389036      -0.00000000
Si      -3.44516784       0.82385818      -1.99098305       0.44388169       0.07389142      -0.00000000
4
Lattice="0.0 0.0 -3.93243164 0.0 -3.36205162 0.0 -4.59568215 1.68102581 0.0" Properties=species:S:1:pos:R:3:forces:R:3 e_per_atom_relaxed=-4.9354900675 mp_id=mp-1001113 energy_per_atom=-4.938464999198914 ef_per_atom_relaxed=-4.9354900675 corrected_total_energy=-4.938464999198914 ef_per_atom=0.4986207500000006 task_id=mp-1001113 calc_id=1 ionic_step=11 energy=-19.753859996795654 pbc="T T T"
Si      -3.66176458      -0.81361943       0.00000000       0.73262823      -0.28336436      -0.00000000
Si      -1.06945949      -0.86740638       0.00000000      -0.51361811       0.28336281       0.00000000
Si      -0.84623195      -2.49464524      -1.96621582      -0.73262799      -0.28336167      -0.00000001
Si      -3.43853704       0.81361943      -1.96621582       0.51361787       0.28336319      -0.00000000
4
Lattice="0.0 0.0 -3.82737306 0.0 -3.44204705 0.0 -4.57408089 1.72102353 0.0" Properties=species:S:1:pos:R:3:forces:R:3 e_per_atom_relaxed=-4.9354900675 mp_id=mp-1001113 energy_per_atom=-4.956205725669861 ef_per_atom_relaxed=-4.9354900675 corrected_total_energy=-4.956205725669861 ef_per_atom=0.5385772475000001 task_id=mp-1001113 calc_id=1 ionic_step=10 energy=-19.824822902679443 pbc="T T T"
Si      -3.63720177      -0.79143784       0.00000000       0.86790168      -0.56948435      -0.00000000
Si      -1.06233843      -0.92958569       0.00000000      -0.78519797       0.56948459      -0.00000004
Si      -0.84960566      -2.51246134      -1.91368653      -0.86790204      -0.56948423      -0.00000002
Si      -3.42446900       0.79143783      -1.91368653       0.78519821       0.56948417      -0.00000000
4
Lattice="0.0 0.0 -3.80911629 0.0 -3.47706909 0.0 -4.60114971 1.73853455 0.0" Properties=species:S:1:pos:R:3:forces:R:3 e_per_atom_relaxed=-4.9354900675 mp_id=mp-1001113 energy_per_atom=-4.952471733093262 ef_per_atom_relaxed=-4.9354900675 corrected_total_energy=-4.952471733093262 ef_per_atom=0.53944876 task_id=mp-1001113 calc_id=1 ionic_step=9 energy=-19.809886932373047 pbc="T T T"
Si      -3.64240640      -0.78473200       0.00000000       0.67262208      -0.64282978       0.00000001
Si      -1.07844319      -0.95380252       0.00000000      -0.64378524       0.64283192      -0.00000000
Si      -0.87095338      -2.52326655      -1.90455814      -0.67262185      -0.64283258      -0.00000000
Si      -3.43491658       0.78473202      -1.90455814       0.64378512       0.64283055       0.00000001
4
Lattice="0.0 0.0 -3.89085609 0.0 -3.32026733 0.0 -4.47995634 1.66013366 0.0" Properties=species:S:1:pos:R:3:forces:R:3 e_per_atom_relaxed=-4.9354900675 mp_id=mp-1001113 energy_per_atom=-4.888429284095764 ef_per_atom_relaxed=-4.9354900675 corrected_total_energy=-4.888429284095764 ef_per_atom=0.5683649200000005 task_id=mp-1001113 calc_id=1 ionic_step=8 energy=-19.553717136383057 pbc="T T T"
Si      -3.61953404      -0.81542104       0.00000000       1.64252663      -0.14321041      -0.00000000
Si      -1.00607997      -0.84471262       0.00000000      -1.36439645       0.14321014      -0.00000000
Si      -0.77494473      -2.47555473      -1.94542805      -1.64252782      -0.14321069       0.00000000
Si      -3.38839881       0.81542105      -1.94542805       1.36439753       0.14321096       0.00000003
4
Lattice="0.0 0.0 -3.75804404 0.0 -3.57504117 0.0 -4.67687314 1.78752059 0.0" Properties=species:S:1:pos:R:3:forces:R:3 e_per_atom_relaxed=-4.9354900675 mp_id=mp-1001113 energy_per_atom=-4.9135072231292725 ef_per_atom_relaxed=-4.9354900675 corrected_total_energy=-4.9135072231292725 ef_per_atom=0.5604295100000005 task_id=mp-1001113 calc_id=1 ionic_step=7 energy=-19.65402889251709 pbc="T T T"
Si      -3.65990910      -0.77062734       0.00000000       0.25989881      -0.91101933       0.00000001
Si      -1.12172464      -1.01689325       0.00000000      -0.37422979       0.91101861       0.00000001
Si      -0.92772930      -2.55814793      -1.87902202      -0.25989845      -0.91101825      -0.00000001
Si      -3.46591376       0.77062733      -1.87902202       0.37422934       0.91101885      -0.00000000
4
Lattice="0.0 0.0 -3.69163802 0.0 -3.70242809 0.0 -4.77533155 1.85121405 0.0" Properties=species:S:1:pos:R:3:forces:R:3 e_per_atom_relaxed=-4.9354900675 mp_id=mp-1001113 energy_per_atom=-4.818293809890747 ef_per_atom_relaxed=-4.9354900675 corrected_total_energy=-4.818293809890747 ef_per_atom=0.6032303200000007 task_id=mp-1001113 calc_id=1 ionic_step=6 energy=-19.27317523956299 pbc="T T T"
Si      -3.67759729      -0.74440487       0.00000000       0.10928860      -1.04695368      -0.00000000
Si      -1.18105057      -1.10680915       0.00000000      -0.32979113       1.04695451      -0.00000002
Si      -1.00662093      -2.59561892      -1.84581901      -0.10928847      -1.04695463      -0.00000000
Si      -3.50316766       0.74440490      -1.84581901       0.32979125       1.04695415      -0.00000000
4
Lattice="0.0 0.0 -3.66950268 0.0 -3.7448904 0.0 -4.80815101 1.8724452 0.0" Properties=species:S:1:pos:R:3:forces:R:3 e_per_atom_relaxed=-4.9354900675 mp_id=mp-1001113 energy_per_atom=-4.7838404178619385 ef_per_atom_relaxed=-4.9354900675 corrected_total_energy=-4.7838404178619385 ef_per_atom=0.6178315600000008 task_id=mp-1001113 calc_id=1 ionic_step=5 energy=-19.135361671447754 pbc="T T T"
Si      -3.68308536      -0.73504842       0.00000000       0.13588297      -0.92345095       0.00000000
Si      -1.20107131      -1.13739680       0.00000000      -0.38383311       0.92345101       0.00000001
Si      -1.03332613      -2.60749362      -1.83475134      -0.13588324      -0.92345107       0.00000000
Si      -3.51534017       0.73504840      -1.83475134       0.38383344       0.92345113       0.00000001
4
Lattice="0.0 0.0 -3.57027064 0.0 -4.21480136 0.0 -5.11930151 2.10740068 0.0" Properties=species:S:1:pos:R:3:forces:R:3 e_per_atom_relaxed=-4.9354900675 mp_id=mp-1001113 energy_per_atom=-4.716709733009338 ef_per_atom_relaxed=-4.9354900675 corrected_total_energy=-4.716709733009338 ef_per_atom=0.7103528350000001 task_id=mp-1001113 calc_id=1 ionic_step=4 energy=-18.866838932037354 pbc="T T T"
Si      -3.74933143      -0.78662446       0.00000000      -0.42273194      -0.46835703      -0.00000001
Si      -1.40817543      -1.32077622       0.00000000       0.26986724       0.46835709      -0.00000002
Si      -1.27229381      -2.89402514      -1.78513532       0.42273143      -0.46835685      -0.00000000
Si      -3.61344981       0.78662442      -1.78513532      -0.26986647       0.46835679       0.00000002
4
Lattice="0.0 0.0 -3.52065462 0.0 -4.44975685 0.0 -5.27487676 2.22487842 0.0" Properties=species:S:1:pos:R:3:forces:R:3 e_per_atom_relaxed=-4.9354900675 mp_id=mp-1001113 energy_per_atom=-4.622733116149902 ef_per_atom_relaxed=-4.9354900675 corrected_total_energy=-4.622733116149902 ef_per_atom=0.7980801825000006 task_id=mp-1001113 calc_id=1 ionic_step=3 energy=-18.49093246459961 pbc="T T T"
Si      -3.77722441      -0.81014594       0.00000000      -0.56452906      -0.21933013       0.00000001
Si      -1.51565930      -1.41473244       0.00000000       0.43070894       0.21933088       0.00000002
Si      -1.39700770      -3.03502436      -1.76032731       0.56452727      -0.21932983      -0.00000002
Si      -3.65857281       0.81014593      -1.76032731      -0.43070704       0.21932900       0.00000001
4
Lattice="0.0 0.0 -3.50411594 0.0 -4.52807534 0.0 -5.32673517 2.26403767 0.0" Properties=species:S:1:pos:R:3:forces:R:3 e_per_atom_relaxed=-4.9354900675 mp_id=mp-1001113 energy_per_atom=-4.584070801734924 ef_per_atom_relaxed=-4.9354900675 corrected_total_energy=-4.584070801734924 ef_per_atom=0.8224853675000006 task_id=mp-1001113 calc_id=1 ionic_step=2 energy=-18.336283206939697 pbc="T T T"
Si      -3.78567611      -0.81762866       0.00000000      -0.58027947      -0.03523229       0.00000000
Si      -1.55212322      -1.44640901       0.00000000       0.43418187       0.03523219      -0.00000001
Si      -1.43942495      -3.08166633      -1.75205797       0.58027935      -0.03523194       0.00000000
Si      -3.67297785       0.81762866      -1.75205797      -0.43418175       0.03523221      -0.00000003
4
Lattice="0.0 0.0 -3.65587317 0.0 -4.6494034 0.0 -5.39677154 2.3247017 0.0" Properties=species:S:1:pos:R:3:forces:R:3 e_per_atom_relaxed=-4.9354900675 mp_id=mp-1001113 energy_per_atom=-4.453852415084839 ef_per_atom_relaxed=-4.9354900675 corrected_total_energy=-4.453852415084839 ef_per_atom=0.8832895725000007 task_id=mp-1001113 calc_id=1 ionic_step=1 energy=-17.815409660339355 pbc="T T T"
Si      -3.86524026      -0.87678196       0.00000000      -0.12716457       0.58722210      -0.00000051
Si      -1.55122464      -1.44791974       0.00000000       0.15259214      -0.58722234      -0.00000048
Si      -1.42856088      -3.20148366      -1.82793659       0.12716438       0.58722222       0.00000043
Si      -3.74257650       0.87678196      -1.82793659      -0.15259194      -0.58722204       0.00000052
4
Lattice="0.0 0.0 -3.3139 0.0 -4.376 0.0 -5.23895 2.188 0.0" Properties=species:S:1:pos:R:3:forces:R:3 e_per_atom_relaxed=-4.9354900675 mp_id=mp-1001113 energy_per_atom=-4.575746655464172 ef_per_atom_relaxed=-4.9354900675 corrected_total_energy=-4.575746655464172 ef_per_atom=0.9582264600000006 task_id=mp-1001113 calc_id=1 ionic_step=0 energy=-18.30298662185669 pbc="T T T"
Si      -3.68507743      -0.74129440       0.00000000      -1.38734257      -1.75855768      -0.00000003
Si      -1.55387257      -1.44670560       0.00000000       0.94705570       1.75855792      -0.00000001
Si      -1.45391340      -2.92929440      -1.65695000       1.38734245      -1.75855803       0.00000001
Si      -3.58511826       0.74129440      -1.65695000      -0.94705600       1.75855780      -0.00000003
4
Lattice="1.6312 -4.716634 0.0 1.6312 4.716634 0.0 0.0 0.0 3.991753" Properties=species:S:1:pos:R:3:forces:R:3 bandgap=0.0 e_per_atom_relaxed=-4.9354900675 mp_id=mp-1001113 energy_per_atom=-4.902928590774536 ef_per_atom_relaxed=-4.9354900675 corrected_total_energy=-4.902928590774536 ef_per_atom=0.4879005875000004 task_id=mp-1415499 calc_id=0 ionic_step=0 energy=-19.611714363098145 pbc="T T T"
Si       1.63120000      -3.73415914       2.99381475       0.00000001       0.06051997       0.00000084
Si       1.63120000      -1.17886607       2.99381475      -0.00000005       0.04096336       0.00000029
Si       1.63120000       3.73415914       0.99793825      -0.00000002      -0.06051975      -0.00000080
Si       1.63120000       1.17886607       0.99793825      -0.00000001      -0.04096352      -0.00000021
3
Lattice="3.43667156 0.12877608 6.19921074 1.70286892 2.98789761 6.19921074 0.21235777 0.12877608 7.08490151" Properties=species:S:1:pos:R:3:forces:R:3 bandgap=0 e_per_atom_relaxed=-8.0937791 mp_id=mp-10014 energy_per_atom=-7.739002068837483 ef_per_atom_relaxed=-8.0937791 corrected_total_energy=-7.739002068837483 ef_per_atom=-1.378763002083333 task_id=mp-10014 calc_id=0 ionic_step=18 energy=-23.21700620651245 pbc="T T T"
S        3.08521205       1.87090641      11.23156309      -0.00137679      -0.00083514      -0.00501242
S        2.26794331       1.37530569       8.25633634       0.00516811       0.00313635       0.01881447
Ta       0.89250995       0.54122782       3.24913870      -0.00379131      -0.00230119      -0.01380194
3
Lattice="3.47131818 0.14986536 6.32559569 1.73758575 3.0088711 6.32559569 0.24713498 0.14986536 7.21125059" Properties=species:S:1:pos:R:3:forces:R:3 e_per_atom_relaxed=-8.0937791 mp_id=mp-10014 energy_per_atom=-7.734114646911621 ef_per_atom_relaxed=-8.0937791 corrected_total_energy=-7.734114646911621 ef_per_atom=-1.378757682083332 task_id=mp-10014 calc_id=0 ionic_step=17 energy=-23.202343940734863 pbc="T T T"
S        3.13738103       1.90254226      11.42148173      -0.01015300      -0.00615691      -0.03696078
S        2.31990256       1.40681435       8.44549146       0.01480669       0.00898203       0.05390921
Ta       0.90991387       0.55178175       3.31249679      -0.00465367      -0.00282502      -0.01694845
3
Lattice="3.48350962 0.15701277 6.36918517 1.7495594 3.01637766 6.36918517 0.25892139 0.15701277 7.25495133" Properties=species:S:1:pos:R:3:forces:R:3 e_per_atom_relaxed=-8.0937791 mp_id=mp-10014 energy_per_atom=-7.7305606206258135 ef_per_atom_relaxed=-8.0937791 corrected_total_energy=-7.7305606206258135 ef_per_atom=-1.3786883820833322 task_id=mp-10014 calc_id=0 ionic_step=16 energy=-23.19168186187744 pbc="T T T"
S        3.15527717       1.91339467      11.48663174       0.00848308       0.00514653       0.03089017
S        2.33797673       1.41777472       8.51128959      -0.00434267      -0.00263072      -0.01580217
Ta       0.91589891       0.55541114       3.33428506      -0.00414054      -0.00251574      -0.01508806
3
Lattice="3.46397321 0.14569015 6.29975687 1.73048806 3.00428812 6.29975687 0.24024986 0.14569015 7.18528545" Properties=species:S:1:pos:R:3:forces:R:3 e_per_atom_relaxed=-8.0937791 mp_id=mp-10014 energy_per_atom=-7.735915501912435 ef_per_atom_relaxed=-8.0937791 corrected_total_energy=-7.735915501912435 ef_per_atom=-1.3787630354166656 task_id=mp-10014 calc_id=0 ionic_step=15 energy=-23.207746505737305 pbc="T T T"
S        3.12659665       1.89600249      11.38222168      -0.01141982      -0.00692496      -0.04155642
S        2.30931805       1.40039579       8.40695905       0.01775186       0.01076508       0.06462592
Ta       0.90639324       0.54964680       3.29968012      -0.00633203      -0.00384016      -0.02306948
3
Lattice="3.43206988 0.12653397 6.18422885 1.69875352 2.98485359 6.18422885 0.20866043 0.12653397 7.06967121" Properties=species:S:1:pos:R:3:forces:R:3 e_per_atom_relaxed=-8.0937791 mp_id=mp-10014 energy_per_atom=-7.740576426188151 ef_per_atom_relaxed=-8.0937791 corrected_total_energy=-7.740576426188151 ef_per_atom=-1.3787379154166655 task_id=mp-10014 calc_id=0 ionic_step=14 energy=-23.221729278564453 pbc="T T T"
S        3.07904411       1.86716610      11.20910900       0.00259162       0.00157187       0.00942832
S        2.26165857       1.37149455       8.23345705       0.00269135       0.00163394       0.00981140
Ta       0.89047490       0.53999374       3.24173019      -0.00528286      -0.00320581      -0.01923973
3
Lattice="3.42430491 0.12110676 6.15364161 1.69035147 2.98047695 6.15364161 0.1997107 0.12110676 7.03940941" Properties=species:S:1:pos:R:3:forces:R:3 e_per_atom_relaxed=-8.0937791 mp_id=mp-10014 energy_per_atom=-7.740413506825765 ef_per_atom_relaxed=-8.0937791 corrected_total_energy=-7.740413506825765 ef_per_atom=-1.3786837787499995 task_id=mp-10014 calc_id=0 ionic_step=11 energy=-23.221240520477295 pbc="T T T"
S        3.06652442       1.85957403      11.16353170      -0.00163934      -0.00099628      -0.00595903
S        2.24914224       1.36390451       8.18789197       0.00134441       0.00081292       0.00489444
Ta       0.88619973       0.53740123       3.22616663       0.00029491       0.00018338       0.00106471
3
Lattice="3.47052749 0.14849359 6.31983681 1.73600384 3.0088041 6.31983681 0.24487286 0.14849359 7.20589589" Properties=species:S:1:pos:R:3:forces:R:3 e_per_atom_relaxed=-8.0937791 mp_id=mp-10014 energy_per_atom=-7.732616742451985 ef_per_atom_relaxed=-8.0937791 corrected_total_energy=-7.732616742451985 ef_per_atom=-1.3787401587499997 task_id=mp-10014 calc_id=0 ionic_step=7 energy=-23.197850227355957 pbc="T T T"
S        3.13521578       1.90122923      11.41359922      -0.01442695      -0.00874866      -0.05252738
S        2.31700471       1.40505706       8.43494197       0.03948780       0.02394555       0.14374380
Ta       0.90956826       0.55157217       3.31123863      -0.02506096      -0.01519691      -0.09121652
3
Lattice="3.41175046 0.11455223 6.11135515 1.67873576 2.97237442 6.11135515 0.18890198 0.11455223 6.99664342" Properties=species:S:1:pos:R:3:forces:R:3 e_per_atom_relaxed=-8.0937791 mp_id=mp-10014 energy_per_atom=-7.74371337890625 ef_per_atom_relaxed=-8.0937791 corrected_total_energy=-7.74371337890625 ef_per_atom=-1.3785643987499996 task_id=mp-10014 calc_id=0 ionic_step=6 energy=-23.23114013671875 pbc="T T T"
S        3.04902508       1.84896223      11.09982620      -0.00260462      -0.00157695      -0.00947443
S        2.23170731       1.35333178       8.12442096      -0.00475698      -0.00288486      -0.01732442
Ta       0.88031359       0.53383181       3.20473844       0.00736166       0.00446182       0.02679900
3
Lattice="3.40634174 0.11112572 6.0911917 1.67319703 2.96916228 6.0911917 0.18325151 0.11112572 6.97654637" Properties=species:S:1:pos:R:3:forces:R:3 e_per_atom_relaxed=-8.0937791 mp_id=mp-10014 energy_per_atom=-7.744009494781494 ef_per_atom_relaxed=-8.0937791 corrected_total_energy=-7.744009494781494 ef_per_atom=-1.3785040154166652 task_id=mp-10014 calc_id=0 ionic_step=5 energy=-23.232028484344482 pbc="T T T"
S        3.04062976       1.84387122      11.06926346      -0.00319111      -0.00193502      -0.01161605
S        2.22343369       1.34831456       8.09430124      -0.00401338      -0.00243364      -0.01461789
Ta       0.87761275       0.53219399       3.19490615       0.00720451       0.00436870       0.02623379
3
Lattice="3.39173375 0.09736202 6.02217725 1.65423937 2.96257141 6.02217725 0.16055451 0.09736202 6.90975389" Properties=species:S:1:pos:R:3:forces:R:3 e_per_atom_relaxed=-8.0937791 mp_id=mp-10014 energy_per_atom=-7.736387411753337 ef_per_atom_relaxed=-8.0937791 corrected_total_energy=-7.736387411753337 ef_per_atom=-1.376379752083333 task_id=mp-10014 calc_id=1 ionic_step=14 energy=-23.20916223526001 pbc="T T T"
S        3.01207360       1.82655446      10.96530615      -0.00401250      -0.00243567      -0.01461509
S        2.19450943       1.33077458       7.98900392       0.04368232       0.02648959       0.15901637
Ta       0.86943472       0.52723475       3.16513443      -0.03967003      -0.02405389      -0.14440125
3
Lattice="3.38686683 0.09362269 6.0019158 1.64867372 2.95998431 6.0019158 0.1543882 0.09362269 6.88984938" Properties=species:S:1:pos:R:3:forces:R:3 e_per_atom_relaxed=-8.0937791 mp_id=mp-10014 energy_per_atom=-7.735182444254558 ef_per_atom_relaxed=-8.0937791 corrected_total_energy=-7.735182444254558 ef_per_atom=-1.3759730820833327 task_id=mp-10014 calc_id=1 ionic_step=13 energy=-23.205547332763672 pbc="T T T"
S        3.00361049       1.82142233      10.93449662       0.00285017       0.00172640       0.01037484
S        2.18580856       1.32549827       7.95732881       0.06193193       0.03755798       0.22546001
Ta       0.86722780       0.52589645       3.15710027      -0.06478202      -0.03928433      -0.23583478
3
Lattice="3.34968504 0.07708505 5.88595772 1.61682106 2.93465869 5.88595772 0.12711686 0.07708505 6.77116899" Properties=species:S:1:pos:R:3:forces:R:3 e_per_atom_relaxed=-8.0937791 mp_id=mp-10014 energy_per_atom=-7.749746640523274 ef_per_atom_relaxed=-8.0937791 corrected_total_energy=-7.749746640523274 ef_per_atom=-1.3751290854166656 task_id=mp-10014 calc_id=1 ionic_step=12 energy=-23.249239921569824 pbc="T T T"
S        2.95414199       1.79142408      10.75440894       0.04657959       0.02824870       0.16957800
S        2.13864164       1.29689573       7.78561996       0.03080355       0.01867991       0.11214709
Ta       0.85147436       0.51634339       3.09975063      -0.07738333      -0.04692858      -0.28172529
3
Lattice="3.33109414 0.06881624 5.82797869 1.60089472 2.92199589 5.82797869 0.11348119 0.06881624 6.7118288" Properties=species:S:1:pos:R:3:forces:R:3 e_per_atom_relaxed=-8.0937791 mp_id=mp-10014 energy_per_atom=-7.754534085591634 ef_per_atom_relaxed=-8.0937791 corrected_total_energy=-7.754534085591634 ef_per_atom=-1.3739417154166653 task_id=mp-10014 calc_id=1 ionic_step=11 energy=-23.263602256774902 pbc="T T T"
S        2.92934850       1.77638905      10.66414949       0.05530590       0.03353801       0.20134012
S        2.11512063       1.28263235       7.69999289       0.02175649       0.01319557       0.07920878
Ta       0.84359442       0.51156491       3.07106409      -0.07706246      -0.04673359      -0.28054881
3
Lattice="3.29530138 0.04846685 5.70205336 1.56630414 2.89966404 5.70205336 0.07992409 0.04846685 6.58528935" Properties=species:S:1:pos:R:3:forces:R:3 e_per_atom_relaxed=-8.0937791 mp_id=mp-10014 energy_per_atom=-7.755631605784099 ef_per_atom_relaxed=-8.0937791 corrected_total_energy=-7.755631605784099 ef_per_atom=-1.371869352083332 task_id=mp-10014 calc_id=1 ionic_step=7 energy=-23.266894817352295 pbc="T T T"
S        2.87967248       1.74626497      10.48330635      -0.00508875      -0.00308366      -0.01851170
S        2.06215491       1.25051335       7.50717376       0.02988340       0.01812157       0.10879871
Ta       0.82493767       0.50025125       3.00314510      -0.02479462      -0.01503787      -0.09028702
3
Lattice="3.27679166 0.03673012 5.63301609 1.5473402 2.88867634 5.63301609 0.06056968 0.03673012 6.51648411" Properties=species:S:1:pos:R:3:forces:R:3 e_per_atom_relaxed=-8.0937791 mp_id=mp-10014 energy_per_atom=-7.758567810058594 ef_per_atom_relaxed=-8.0937791 corrected_total_energy=-7.758567810058594 ef_per_atom=-1.3697314720833327 task_id=mp-10014 calc_id=1 ionic_step=6 energy=-23.27570343017578 pbc="T T T"
S        2.85328215       1.73026158      10.38723367      -0.03132180      -0.01899220      -0.11402778
S        2.03279864       1.23271138       7.40030369       0.02433404       0.01475910       0.08858883
Ta       0.81436591       0.49384042       2.96465915       0.00698764       0.00423310       0.02543884
3
Lattice="3.26979676 0.02941454 5.59762893 1.53761966 2.88585548 5.59762893 0.04850596 0.02941454 6.48248931" Properties=species:S:1:pos:R:3:forces:R:3 e_per_atom_relaxed=-8.0937791 mp_id=mp-10014 energy_per_atom=-7.755300839742024 ef_per_atom_relaxed=-8.0937791 corrected_total_energy=-7.755300839742024 ef_per_atom=-1.3686877020833326 task_id=mp-10014 calc_id=1 ionic_step=4 energy=-23.265902519226074 pbc="T T T"
S        2.83873488       1.72143995      10.33427505      -0.04212035      -0.02554384      -0.15333489
S        2.01877869       1.22420953       7.34926476       0.02993375       0.01815362       0.10896972
Ta       0.80934785       0.49079741       2.94639113       0.01218669       0.00739028       0.04436512
3
Lattice="3.26614141 0.01433513 5.54279917 1.5225584 2.88958493 5.54279917 0.02363931 0.01433513 6.43348611" Properties=species:S:1:pos:R:3:forces:R:3 e_per_atom_relaxed=-8.0937791 mp_id=mp-10014 energy_per_atom=-7.73012113571167 ef_per_atom_relaxed=-8.0937791 corrected_total_energy=-7.73012113571167 ef_per_atom=-1.366643458749999 task_id=mp-10014 calc_id=1 ionic_step=3 energy=-23.19036340713501 pbc="T T T"
S        2.81337112       1.70605908      10.24193953      -0.00568143      -0.00344655      -0.02068880
S        1.99992108       1.21277407       7.28061458       0.02879388       0.01746032       0.10482153
Ta       0.80270755       0.48677066       2.92221745      -0.02311253      -0.01401381      -0.08413270
3
Lattice="3.40067442 0.04413029 5.86538459 1.6111698 2.99510699 5.86538459 0.07277291 0.04413029 6.77953" Properties=species:S:1:pos:R:3:forces:R:3 e_per_atom_relaxed=-8.0937791 mp_id=mp-10014 energy_per_atom=-7.4454952875773115 ef_per_atom_relaxed=-8.0937791 corrected_total_energy=-7.4454952875773115 ef_per_atom=-1.212978212083333 task_id=mp-10014 calc_id=1 ionic_step=1 energy=-22.336485862731934 pbc="T T T"
S        2.98609603       1.81080137      10.87073609      -0.61196601      -0.37110251      -2.22783256
S        2.10118823       1.27418358       7.64927267       0.56923926       0.34519321       2.07228923
Ta       0.84646392       0.51330500       3.08151039       0.04272661       0.02590920       0.15554343
3
Lattice="3.20141449 0.0 5.38759591 1.47992543 2.83881585 5.38759591 0.0 0.0 6.26699645" Properties=species:S:1:pos:R:3:forces:R:3 e_per_atom_relaxed=-8.0937791 mp_id=mp-10014 energy_per_atom=-7.746122360229492 ef_per_atom_relaxed=-8.0937791 corrected_total_energy=-7.746122360229492 ef_per_atom=-1.3199078854166661 task_id=mp-10014 calc_id=1 ionic_step=0 energy=-23.238367080688477 pbc="T T T"
S        2.72922117       1.65502964       9.93559576       0.41595030       0.25223738       1.51425481
S        1.95211875       1.18378621       7.10659251      -0.36050808      -0.21861669      -1.31242049
Ta       0.78178377       0.47408225       2.84604544      -0.05544219      -0.03362066      -0.20183459
3
Lattice="-1.6781108 -2.90657382 0.0 1.6781108 -2.90657382 0.0 0.0 -1.93771588 6.07287398" Properties=species:S:1:pos:R:3:forces:R:3 e_per_atom_relaxed=-8.0937791 mp_id=mp-10014 energy_per_atom=-7.740379810333252 ef_per_atom_relaxed=-8.0937791 corrected_total_energy=-7.740379810333252 ef_per_atom=-1.3615564020833326 task_id=mp-1062998 calc_id=1 ionic_step=5 energy=-23.221139430999756 pbc="T T T"
Ta       0.00000000       0.00000002       0.00102929       0.00000001       0.00000507      -0.01866920
S        0.00000000      -5.81314764       4.50745486       0.00000009      -0.00000298       0.33814824
S        0.00000000      -3.87543176       1.57046264      -0.00000005      -0.00000204      -0.31947902
3
Lattice="-1.65413687 -2.86504972 0.0 1.65413687 -2.86504972 0.0 0.0 -1.91003314 6.11455273" Properties=species:S:1:pos:R:3:forces:R:3 e_per_atom_relaxed=-8.0937791 mp_id=mp-10014 energy_per_atom=-7.791497548421224 ef_per_atom_relaxed=-8.0937791 corrected_total_energy=-7.791497548421224 ef_per_atom=-1.3545344120833318 task_id=mp-1062998 calc_id=1 ionic_step=3 energy=-23.374492645263672 pbc="T T T"
Ta       0.00000000      -0.00000000      -0.00025736       0.00000002       0.00000854       0.06637827
S        0.00000000      -5.73009942       4.51672147       0.00000007      -0.00000510       0.55739421
S        0.00000000      -3.82006631       1.60420317      -0.00000002      -0.00000354      -0.62377244
3
Lattice="-1.583082 -2.741979 0.0 1.583082 -2.741979 0.0 0.0 -1.827986 5.814172" Properties=species:S:1:pos:R:3:forces:R:3 e_per_atom_relaxed=-8.0937791 mp_id=mp-10014 energy_per_atom=-7.510083357493083 ef_per_atom_relaxed=-8.0937791 corrected_total_energy=-7.510083357493083 ef_per_atom=-1.0689554754166661 task_id=mp-1062998 calc_id=1 ionic_step=0 energy=-22.530250072479248 pbc="T T T"
Ta       0.00000000       0.00000000       0.00000000      -0.00000010       0.00000362       0.00192260
S        0.00000000      -5.48395800       4.36062900      -0.00000002      -0.00000258      -3.49658513
S        0.00000000      -3.65597200       1.45935717      -0.00000008      -0.00000084       3.49466228
3
Lattice="6.889292 -1.671874 0.0 6.889292 1.671874 0.0 6.483567 0.0 2.867206" Properties=species:S:1:pos:R:3:forces:R:3 bandgap=0.0 e_per_atom_relaxed=-8.0937791 mp_id=mp-10014 energy_per_atom=-7.739002068837483 ef_per_atom_relaxed=-8.0937791 corrected_total_energy=-7.739002068837483 ef_per_atom=-1.3835534287499993 task_id=mp-1782631 calc_id=0 ionic_step=0 energy=-23.21700620651245 pbc="T T T"
Ta      16.88313339       0.00000000       2.38905639       0.01425670       0.00000000       0.00200580
S        8.58160855       0.00000000       1.21434489       0.00542176       0.00000000       0.00077824
S       11.67578084       0.00000000       1.65218732      -0.01967862      -0.00000003      -0.00278408
13
Lattice="4.52200428 -0.0 2.6107802 1.50733509 4.26338685 2.6107802 0.0 0.0 5.22156041" Properties=species:S:1:pos:R:3:forces:R:3 bandgap=0.0 e_per_atom_relaxed=-7.1248659023076915 mp_id=mp-1001600 energy_per_atom=-7.118086888239934 ef_per_atom_relaxed=-7.1248659023076915 corrected_total_energy=-7.118086888239934 ef_per_atom=-0.19187053076923086 task_id=mp-1001600 calc_id=0 ionic_step=0 energy=-92.53512954711914 pbc="T T T"
Hf       0.00000000       0.00000000       0.00000000       0.00000016      -0.00000045      -0.00000021
B        4.54894083       2.13169342       6.10737220       0.05124861       0.00000058       0.02958861
B        3.01466968       2.13169342       6.99318400       0.00000014      -0.00000040       0.05917753
B        4.03751701       0.68516860       5.22156040       0.03416724      -0.04831836      -0.00000003
B        3.52609351       3.57821825       4.33574860       0.01708386       0.04831874      -0.02958906
B        2.50324586       0.68516860       6.10737221      -0.01708391      -0.04831902       0.02958953
B        3.52609351       3.57821825       6.10737220       0.01708387       0.04831876       0.02958922
B        4.54894083       2.13169342       4.33574860       0.05124878       0.00000061      -0.02958868
B        1.99182236       3.57821825       5.22156040      -0.03416613       0.04831972       0.00000011
B        2.50324586       0.68516860       4.33574861      -0.01708389      -0.04831883      -0.02958909
B        1.48039854       2.13169342       6.10737221      -0.05124944      -0.00000067       0.02958850
B        3.01466968       2.13169342       3.44993681       0.00000021      -0.00000026      -0.05917751
B        1.48039854       2.13169342       4.33574861      -0.05124946      -0.00000068      -0.02958857
13
Lattice="4.49762664 -0.0 2.59670577 1.4992092 4.24040338 2.59670577 0.0 0.0 5.19341154" Properties=species:S:1:pos:R:3:forces:R:3 e_per_atom_relaxed=-7.1248659023076915 mp_id=mp-1001600 energy_per_atom=-7.1097337282620945 ef_per_atom_relaxed=-7.1248659023076915 corrected_total_energy=-7.1097337282620945 ef_per_atom=-0.19047708769230753 task_id=mp-1001600 calc_id=1 ionic_step=1 energy=-92.42653846740723 pbc="T T T"
Hf       0.00000000       0.00000000       0.00000000      -0.00000048       0.00000031       0.00000055
B        4.52433059       2.12020169       6.07439757       0.06255616      -0.00000013       0.03611521
B        2.99841792       2.12020169       6.95538360      -0.00000012       0.00000007       0.07223334
B        4.01569292       0.68155732       5.19341154       0.04170392      -0.05897828       0.00000341
B        3.50705558       3.55884606       4.31242551       0.02085105       0.05897804      -0.03611627
B        2.48978026       0.68155732       6.07439757      -0.02085105      -0.05897877       0.03611682
B        3.50705558       3.55884606       6.07439757       0.02085121       0.05897786       0.03611565
B        4.52433059       2.12020169       4.31242551       0.06255604      -0.00000066      -0.03611588
B        1.98114292       3.55884606       5.19341154      -0.04170272       0.05897607       0.00000145
B        2.48978026       0.68155732       4.31242551      -0.02085050      -0.05897785      -0.03611731
B        1.47250525       2.12020169       6.07439757      -0.06255678       0.00000052       0.03611721
B        2.99841792       2.12020169       3.43143948      -0.00000066       0.00000105      -0.07223580
B        1.47250525       2.12020169       4.31242551      -0.06255616       0.00000172      -0.03611802
13
Lattice="4.561706 0.0 2.633702 1.520569 4.300818 2.633702 0.0 0.0 5.267404" Properties=species:S:1:pos:R:3:forces:R:3 e_per_atom_relaxed=-7.1248659023076915 mp_id=mp-1001600 energy_per_atom=-7.119523928715632 ef_per_atom_relaxed=-7.1248659023076915 corrected_total_energy=-7.119523928715632 ef_per_atom=-0.18814132461538471 task_id=mp-1001600 calc_id=1 ionic_step=0 energy=-92.55381107330322 pbc="T T T"
Hf       0.00000000       0.00000000       0.00000000       0.00000013       0.00000055      -0.00000169
B        4.58902014       2.15040900       6.16107440       0.02237379      -0.00000084       0.01291956
B        3.04113750       2.15040900       7.05474479      -0.00000092      -0.00000051       0.02583783
B        4.07305915       0.69105114       5.26740400       0.01491812      -0.02109867      -0.00000056
B        3.55709849       3.60976686       4.37373360       0.00745855       0.02109640      -0.01291936
B        2.52517651       0.69105114       6.16107440      -0.00745651      -0.02109531       0.01292121
B        3.55709849       3.60976686       6.16107440       0.00745785       0.02109666       0.01291950
B        4.58902014       2.15040900       4.37373360       0.02237466      -0.00000018      -0.01291882
B        2.00921585       3.60976686       5.26740400      -0.01491753       0.02109845      -0.00000059
B        2.52517651       0.69105114       4.37373360      -0.00745730      -0.02109621      -0.01292082
B        1.49325486       2.15040900       6.16107440      -0.02237473       0.00000019       0.01292117
B        3.04113750       2.15040900       3.48006321      -0.00000041      -0.00000028      -0.02583667
B        1.49325486       2.15040900       4.37373360      -0.02237554      -0.00000021      -0.01292077
13
Lattice="0.0 3.692201 3.692201 3.692201 0.0 3.692201 3.692201 3.692201 0.0" Properties=species:S:1:pos:R:3:forces:R:3 bandgap=0.0 e_per_atom_relaxed=-7.1248659023076915 mp_id=mp-1001600 energy_per_atom=-7.118086888239934 ef_per_atom_relaxed=-7.1248659023076915 corrected_total_energy=-7.118086888239934 ef_per_atom=-0.1933372507692304 task_id=mp-1429106 calc_id=0 ionic_step=0 energy=-92.53512954711914 pbc="T T T"
Hf       0.00000000       0.00000000       0.00000000       0.00000001       0.00000010      -0.00000009
B        4.94492788       3.69220100       4.94492788       0.04184975       0.00000006       0.04184976
B        3.69220100       4.94492788       4.94492788      -0.00000006       0.04184989       0.04184995
B        3.69220100       2.43947412       4.94492788      -0.00000009      -0.04184987       0.04184990
B        4.94492788       3.69220100       2.43947412       0.04185007      -0.00000003      -0.04184986
B        2.43947412       3.69220100       4.94492788      -0.04184977       0.00000003       0.04185003
B        4.94492788       4.94492788       3.69220100       0.04184987       0.04184983       0.00000015
B        4.94492788       2.43947412       3.69220100       0.04184968      -0.04184971       0.00000001
B        3.69220100       4.94492788       2.43947412       0.00000002       0.04184999      -0.04184988
B        2.43947412       2.43947412       3.69220100      -0.04184984      -0.04184979      -0.00000006
B        2.43947412       4.94492788       3.69220100      -0.04184978       0.04184999       0.00000004
B        3.69220100       2.43947412       2.43947412      -0.00000005      -0.04185026      -0.04185017
B        2.43947412       3.69220100       2.43947412      -0.04184984      -0.00000025      -0.04184984
13
Lattice="4.49260479 -1e-08 2.5938064 1.49753525 4.23566873 2.5938064 0.0 -0.0 5.18761281" Properties=species:S:1:pos:R:3:forces:R:3 bandgap=0.0 e_per_atom_relaxed=-6.95684134 mp_id=mp-1001602 energy_per_atom=-6.9519673860990086 ef_per_atom_relaxed=-6.95684134 corrected_total_energy=-6.9519673860990086 ef_per_atom=0.21130307923076957 task_id=mp-1001602 calc_id=0 ionic_step=2 energy=-90.37557601928711 pbc="T T T"
B        4.52519133       2.11783436       6.07102869       0.03767128      -0.00000082       0.02175053
B        2.99507002       2.11783436       6.95444458       0.00000041       0.00000040       0.04350339
B        4.01515078       0.67522205       5.18761281       0.02511730      -0.03552146      -0.00000148
B        3.50511056       3.56044667       4.30419692       0.01255544       0.03551682      -0.02174992
B        2.48502948       0.67522205       6.07102869      -0.01255674      -0.03551677       0.02175164
B        3.50511056       3.56044667       6.07102869       0.01255570       0.03551678       0.02175076
B        4.52519133       2.11783436       4.30419692       0.03767139      -0.00000000      -0.02174992
B        1.97498926       3.56044667       5.18761281      -0.02511446       0.03551982      -0.00000322
B        2.48502948       0.67522205       4.30419692      -0.01255712      -0.03551769      -0.02175039
B        1.46494871       2.11783436       6.07102869      -0.03767152       0.00000058       0.02174997
B        2.99507002       2.11783436       3.42078103      -0.00000046       0.00000138      -0.04350146
B        1.46494871       2.11783436       4.30419692      -0.03767172       0.00000048      -0.02174951
W        0.00000000       0.00000000       0.00000000       0.00000022       0.00000097      -0.00000008
13
Lattice="4.48869682 -1e-08 2.59155014 1.4962326 4.23198427 2.59155014 0.0 -0.0 5.18310028" Properties=species:S:1:pos:R:3:forces:R:3 e_per_atom_relaxed=-6.95684134 mp_id=mp-1001602 energy_per_atom=-6.950904406034029 ef_per_atom_relaxed=-6.95684134 corrected_total_energy=-6.950904406034029 ef_per_atom=0.2114785469230764 task_id=mp-1001602 calc_id=0 ionic_step=1 energy=-90.36175727844238 pbc="T T T"
B        4.51904285       2.11599213       6.06447052       0.06284916      -0.00000113       0.03628732
B        2.99246471       2.11599213       6.94584076      -0.00000073       0.00000051       0.07257009
B        4.01018336       0.67672035       5.18310028       0.04190093      -0.05925581       0.00000086
B        3.50132420       3.55526391       4.30173004       0.02094893       0.05925522      -0.03628510
B        2.48360522       0.67672035       6.06447052      -0.02094748      -0.05925543       0.03628841
B        3.50132420       3.55526391       6.06447052       0.02094864       0.05925482       0.03628643
B        4.51904285       2.11599213       4.30173004       0.06284977      -0.00000055      -0.03628625
B        1.97474606       3.55526391       5.18310028      -0.04189961       0.05925347       0.00000132
B        2.48360522       0.67672035       4.30173004      -0.02094813      -0.05925641      -0.03628659
B        1.46588657       2.11599213       6.06447052      -0.06284960       0.00000199       0.03628766
B        2.99246471       2.11599213       3.42035980      -0.00000052       0.00000118      -0.07257546
B        1.46588657       2.11599213       4.30173004      -0.06285013       0.00000176      -0.03628650
W        0.00000000       0.00000000       0.00000000      -0.00000092       0.00000046      -0.00000215
13
Lattice="4.4957224 -1e-08 2.59560636 1.49857446 4.23860805 2.59560636 0.0 0.0 5.19121272" Properties=species:S:1:pos:R:3:forces:R:3 e_per_atom_relaxed=-6.95684134 mp_id=mp-1001602 energy_per_atom=-6.952658066382775 ef_per_atom_relaxed=-6.95684134 corrected_total_energy=-6.952658066382775 ef_per_atom=0.2114435676923071 task_id=mp-1001602 calc_id=0 ionic_step=0 energy=-90.38455486297607 pbc="T T T"
B        4.53009284       2.11930402       6.07625853       0.02041936       0.00000085       0.01178708
B        2.99714843       2.11930402       6.96130433      -0.00000050       0.00000157       0.02357606
B        4.01911126       0.67403006       5.19121272       0.01361290      -0.01925045       0.00000069
B        3.50813001       3.56457798       4.30616691       0.00680344       0.01924877      -0.01178820
B        2.48616685       0.67403006       6.07625853      -0.00680771      -0.01925129       0.01178632
B        3.50813001       3.56457798       6.07625853       0.00680377       0.01924825       0.01178641
B        4.53009284       2.11930402       4.30616691       0.02041923       0.00000049      -0.01178863
B        1.97518560       3.56457798       5.19121272      -0.01361144       0.01924811       0.00000099
B        2.48616685       0.67403006       4.30616691      -0.00680728      -0.01925113      -0.01178867
B        1.46420402       2.11930402       6.07625853      -0.02041581       0.00000124       0.01178693
B        2.99714843       2.11930402       3.42112111      -0.00000090       0.00000161      -0.02357233
B        1.46420402       2.11930402       4.30616691      -0.02041579       0.00000234      -0.01178879
W        0.00000000       0.00000000       0.00000000       0.00000094      -0.00000035       0.00000202
13
Lattice="4.45376283 -1e-08 2.57138099 1.48458793 4.19904818 2.57138099 -0.0 0.0 5.14276199" Properties=species:S:1:pos:R:3:forces:R:3 e_per_atom_relaxed=-6.95684134 mp_id=mp-1001602 energy_per_atom=-6.93133963071383 ef_per_atom_relaxed=-6.95684134 corrected_total_energy=-6.93133963071383 ef_per_atom=0.21622412538461552 task_id=mp-1001602 calc_id=1 ionic_step=1 energy=-90.10741519927979 pbc="T T T"
B        4.49269568       2.09952408       6.02236678      -0.31417790      -0.00000106      -0.18139248
B        2.96917538       2.09952409       6.90197157       0.00000064      -0.00000027      -0.36277494
B        3.98485547       0.66313526       5.14276198      -0.20945147       0.29620874      -0.00000292
B        3.47701559       3.53591290       4.26315719      -0.10472661      -0.29620913       0.18139085
B        2.46133517       0.66313527       6.02236678       0.10472739       0.29620999      -0.18139113
B        3.47701559       3.53591290       6.02236678      -0.10472615      -0.29620969      -0.18139227
B        4.49269568       2.09952408       4.26315719      -0.31417876      -0.00000079       0.18139033
B        1.95349529       3.53591291       5.14276198       0.20945075      -0.29620814      -0.00000298
B        2.46133517       0.66313527       4.26315719       0.10472846       0.29620987       0.18138796
B        1.44565508       2.09952409       6.02236678       0.31417620      -0.00000134      -0.18139082
B        2.96917538       2.09952409       3.38355240       0.00000091       0.00000039       0.36278120
B        1.44565508       2.09952409       4.26315719       0.31417659      -0.00000143       0.18138875
W        0.00000000       0.00000000       0.00000000       0.00000008       0.00000279       0.00000802
13
Lattice="4.561706 0.0 2.633702 1.520569 4.300818 2.633702 0.0 0.0 5.267404" Properties=species:S:1:pos:R:3:forces:R:3 e_per_atom_relaxed=-6.95684134 mp_id=mp-1001602 energy_per_atom=-6.933312636155349 ef_per_atom_relaxed=-6.95684134 corrected_total_energy=-6.933312636155349 ef_per_atom=0.2232149653846147 task_id=mp-1001602 calc_id=1 ionic_step=0 energy=-90.13306427001953 pbc="T T T"
B        4.58902014       2.15040900       6.16107440       0.29340276      -0.00000139       0.16939874
B        3.04113750       2.15040900       7.05474479      -0.00000101      -0.00000033       0.33879423
B        4.07305915       0.69105114       5.26740400       0.19560403      -0.27662721      -0.00000024
B        3.55709849       3.60976686       4.37373360       0.09780139       0.27662545      -0.16939831
B        2.52517651       0.69105114       6.16107440      -0.09779923      -0.27662414       0.16940072
B        3.55709849       3.60976686       6.16107440       0.09780065       0.27662525       0.16939902
B        4.58902014       2.15040900       4.37373360       0.29340383      -0.00000138      -0.16939804
B        2.00921585       3.60976686       5.26740400      -0.19560334       0.27662706      -0.00000011
B        2.52517651       0.69105114       4.37373360      -0.09780005      -0.27662566      -0.16939972
B        1.49325486       2.15040900       6.16107440      -0.29340351       0.00000138       0.16940039
B        3.04113750       2.15040900       3.48006321      -0.00000014      -0.00000045      -0.33879465
B        1.49325486       2.15040900       4.37373360      -0.29340488       0.00000082      -0.16939946
W        0.00000000       0.00000000       0.00000000      -0.00000047       0.00000085      -0.00000256
13
Lattice="0.0 3.668196 3.668196 3.668196 0.0 3.668196 3.668196 3.668196 0.0" Properties=species:S:1:pos:R:3:forces:R:3 bandgap=0.0 e_per_atom_relaxed=-6.95684134 mp_id=mp-1001602 energy_per_atom=-6.9519673860990086 ef_per_atom_relaxed=-6.95684134 corrected_total_energy=-6.9519673860990086 ef_per_atom=0.20552898076923043 task_id=mp-1400968 calc_id=0 ionic_step=0 energy=-90.37557601928711 pbc="T T T"
B        4.91753587       3.66819600       4.91753587       0.03073444       0.00000013       0.03073438
B        3.66819600       4.91753587       4.91753587       0.00000024       0.03073595       0.03073504
B        3.66819600       2.41885613       4.91753587       0.00000024      -0.03073612       0.03073529
B        4.91753587       3.66819600       2.41885613       0.03073463      -0.00000011      -0.03073464
B        2.41885613       3.66819600       4.91753587      -0.03073463      -0.00000000       0.03073426
B        4.91753587       4.91753587       3.66819600       0.03073506       0.03073591       0.00000012
B        4.91753587       2.41885613       3.66819600       0.03073501      -0.03073576       0.00000000
B        3.66819600       4.91753587       2.41885613      -0.00000008       0.03073574      -0.03073487
B        2.41885613       2.41885613       3.66819600      -0.03073521      -0.03073592      -0.00000023
B        2.41885613       4.91753587       3.66819600      -0.03073540       0.03073599      -0.00000007
B        3.66819600       2.41885613       2.41885613      -0.00000014      -0.03073578      -0.03073513
B        2.41885613       3.66819600       2.41885613      -0.03073424      -0.00000005      -0.03073432
W        0.00000000       0.00000000       0.00000000       0.00000005      -0.00000014      -0.00000003
4
Lattice="-3.4578303 0.0 0.0 0.0 -2.2453125 -2.97171196 0.0 -2.2453125 2.97171196" Properties=species:S:1:pos:R:3:forces:R:3 bandgap=0.0 e_per_atom_relaxed=-7.53354357 mp_id=mp-1001603 energy_per_atom=-7.546155214309692 ef_per_atom_relaxed=-7.53354357 corrected_total_energy=-7.546155214309692 ef_per_atom=-0.34229964500000065 task_id=mp-1001603 calc_id=0 ionic_step=17 energy=-30.18462085723877 pbc="T T T"
Lu       0.00000000      -2.24531250      -2.96545680       0.00000007      -0.00000089      -0.04330814
Ni      -1.72891515      -2.24531250       0.66762279       0.00000010      -0.00000060      -0.00061858
C       -1.72891515      -2.93411458      -1.18387688      -0.00000005      -0.24399579       0.02196240
C       -1.72891515      -1.55651042      -1.18387688       0.00000001       0.24399778       0.02196425
4
Lattice="-3.46079444 0.0 0.0 0.0 -2.24689148 -2.97425158 0.0 -2.24689148 2.97425158" Properties=species:S:1:pos:R:3:forces:R:3 e_per_atom_relaxed=-7.53354357 mp_id=mp-1001603 energy_per_atom=-7.54344367980957 ef_per_atom_relaxed=-7.53354357 corrected_total_energy=-7.54344367980957 ef_per_atom=-0.3421737675000003 task_id=mp-1001603 calc_id=0 ionic_step=0 energy=-30.17377471923828 pbc="T T T"
Lu       0.00000000      -2.24689148      -2.96889989      -0.00000003       0.00000353       0.04056072
Ni      -1.73039722      -2.24689148       0.66550551       0.00000001       0.00000316       0.07784605
C       -1.73039722      -2.93705300      -1.18309030       0.00000004      -0.18124592      -0.05920082
C       -1.73039722      -1.55672996      -1.18309030      -0.00000007       0.18123892      -0.05920583
4
Lattice="-3.45686044 0.0 0.0 0.0 -2.24655361 -2.96688092 0.0 -2.24655361 2.96688092" Properties=species:S:1:pos:R:3:forces:R:3 e_per_atom_relaxed=-7.53354357 mp_id=mp-1001603 energy_per_atom=-7.5475640296936035 ef_per_atom_relaxed=-7.53354357 corrected_total_energy=-7.5475640296936035 ef_per_atom=-0.34158221750000006 task_id=mp-1001603 calc_id=1 ionic_step=5 energy=-30.190256118774414 pbc="T T T"
Lu       0.00000000       0.00000000       0.00728476       0.00000001       0.00000007      -0.01685703
Ni      -1.72843022      -2.24655361       0.66206375      -0.00000007      -0.00000003       0.12551653
C       -1.72843022      -2.94134875      -1.18023532       0.00000004       0.17729467      -0.05432999
C       -1.72843022      -1.55175847      -1.18023532      -0.00000001      -0.17729402      -0.05432981
4
Lattice="-3.46440272 0.0 0.0 0.0 -2.24720136 -2.98101199 0.0 -2.24720136 2.98101199" Properties=species:S:1:pos:R:3:forces:R:3 e_per_atom_relaxed=-7.53354357 mp_id=mp-1001603 energy_per_atom=-7.537788391113281 ef_per_atom_relaxed=-7.53354357 corrected_total_energy=-7.537788391113281 ef_per_atom=-0.3418527375 task_id=mp-1001603 calc_id=1 ionic_step=4 energy=-30.151153564453125 pbc="T T T"
Lu       0.00000000       0.00000000       0.00358795       0.00000001      -0.00000051       0.08660239
Ni      -1.73220136      -2.24720136       0.66865369      -0.00000002       0.00000164       0.03940916
C       -1.73220136      -2.93311423      -1.18570926      -0.00000004      -0.51067716      -0.06300569
C       -1.73220136      -1.56128849      -1.18570926       0.00000001       0.51067644      -0.06300634
4
Lattice="-3.46568471 0.0 0.0 0.0 -2.24756796 -2.97057195 0.0 -2.24756796 2.97057195" Properties=species:S:1:pos:R:3:forces:R:3 e_per_atom_relaxed=-7.53354357 mp_id=mp-1001603 energy_per_atom=-7.541523098945618 ef_per_atom_relaxed=-7.53354357 corrected_total_energy=-7.541523098945618 ef_per_atom=-0.34137526499999993 task_id=mp-1001603 calc_id=1 ionic_step=3 energy=-30.16609239578247 pbc="T T T"
Lu       0.00000000       0.00000000       0.00531364       0.00000012      -0.00000066       0.00266224
Ni      -1.73284236      -2.24756796       0.65963665       0.00000006      -0.00000125       0.33611524
C       -1.73284236      -2.93310977      -1.17908815       0.00000002      -0.60800028      -0.16938990
C       -1.73284236      -1.56202615      -1.17908815      -0.00000001       0.60800171      -0.16938761
4
Lattice="-3.4626881 0.0 0.0 0.0 -2.24671105 -2.9949753 0.0 -2.24671105 2.9949753" Properties=species:S:1:pos:R:3:forces:R:3 e_per_atom_relaxed=-7.53354357 mp_id=mp-1001603 energy_per_atom=-7.5303075313568115 ef_per_atom_relaxed=-7.53354357 corrected_total_energy=-7.5303075313568115 ef_per_atom=-0.3410963075 task_id=mp-1001603 calc_id=1 ionic_step=2 energy=-30.121230125427246 pbc="T T T"
Lu       0.00000000       0.00000000       0.00129425      -0.00000013      -0.00000171       0.17473960
Ni      -1.73134405      -2.24671105       0.68065893       0.00000004      -0.00000125      -0.34044671
C       -1.73134405      -2.93312041      -1.19454452       0.00000003      -0.37486169       0.08285230
C       -1.73134405      -1.56030169      -1.19454452       0.00000003       0.37486482       0.08285457
4
Lattice="-3.50130723 0.0 0.0 0.0 -2.26209877 -3.00358528 0.0 -2.26209877 3.00358528" Properties=species:S:1:pos:R:3:forces:R:3 e_per_atom_relaxed=-7.53354357 mp_id=mp-1001603 energy_per_atom=-7.458656072616577 ef_per_atom_relaxed=-7.53354357 corrected_total_energy=-7.458656072616577 ef_per_atom=-0.3233947475000001 task_id=mp-1001603 calc_id=1 ionic_step=1 energy=-29.83462429046631 pbc="T T T"
Lu       0.00000000       0.00000000       0.00446903      -0.00000034      -0.00000029      -0.03303468
Ni      -1.75065362      -2.26209877       0.66256004       0.00000003      -0.00000045       0.74534780
C       -1.75065362      -2.92890251      -1.18953637       0.00000005      -2.41279030      -0.35615653
C       -1.75065362      -1.59529503      -1.18953637      -0.00000001       2.41279125      -0.35615718
4
Lattice="-3.4471 0.0 0.0 0.0 -2.2405 -2.9915 0.0 -2.2405 2.9915" Properties=species:S:1:pos:R:3:forces:R:3 e_per_atom_relaxed=-7.53354357 mp_id=mp-1001603 energy_per_atom=-7.5401740074157715 ef_per_atom_relaxed=-7.53354357 corrected_total_energy=-7.5401740074157715 ef_per_atom=-0.33895361999999984 task_id=mp-1001603 calc_id=1 ionic_step=0 energy=-30.160696029663086 pbc="T T T"
Lu       0.00000000       0.00000000       0.00000000      -0.00000003      -0.00000006       0.28440732
Ni      -1.72355000      -2.24050000       0.68804500      -0.00000003      -0.00000137      -0.68856430
C       -1.72355000      -2.93505500      -1.19660000      -0.00000001       0.43801373       0.20207918
C       -1.72355000      -1.54594500      -1.19660000      -0.00000000      -0.43801218       0.20207828
4
Lattice="-3.46805517 0.0 0.0 0.0 -2.24867847 -2.97956241 0.0 -2.24867847 2.97956241" Properties=species:S:1:pos:R:3:forces:R:3 bandgap=0.0 e_per_atom_relaxed=-7.53354357 mp_id=mp-1001603 energy_per_atom=-7.536511421203613 ef_per_atom_relaxed=-7.53354357 corrected_total_energy=-7.536511421203613 ef_per_atom=-0.34338170500000054 task_id=mp-1066516 calc_id=0 ionic_step=2 energy=-30.146045684814453 pbc="T T T"
Lu       0.00000000      -2.24867847      -2.97366532       0.00000015       0.00000016       0.00390232
Ni      -1.73402758      -2.24867847       0.66917295       0.00000001      -0.00000197      -0.00757349
C       -1.73402758      -2.93731035      -1.18671031      -0.00000000      -0.34551555       0.00183612
C       -1.73402758      -1.56004659      -1.18671031       0.00000001       0.34551731       0.00183523
4
Lattice="-3.46010563 0.0 0.0 0.0 -2.24834087 -2.96500696 0.0 -2.24834087 2.96500696" Properties=species:S:1:pos:R:3:forces:R:3 e_per_atom_relaxed=-7.53354357 mp_id=mp-1001603 energy_per_atom=-7.546179294586182 ef_per_atom_relaxed=-7.53354357 corrected_total_energy=-7.546179294586182 ef_per_atom=-0.3427032625000006 task_id=mp-1066516 calc_id=1 ionic_step=5 energy=-30.184717178344727 pbc="T T T"
Lu       0.00000000       0.00000000       0.00668639      -0.00000000       0.00000080       0.03752744
Ni      -1.73005282      -2.24834087       0.65813388       0.00000010       0.00000012       0.25948441
C       -1.73005282      -2.94416905      -1.17743712      -0.00000004       0.20003566      -0.14850613
C       -1.73005282      -1.55251269      -1.17743712       0.00000003      -0.20003596      -0.14850599
4
Lattice="-3.46710775 0.0 0.0 0.0 -2.24546506 -2.98607761 0.0 -2.24546506 2.98607761" Properties=species:S:1:pos:R:3:forces:R:3 e_per_atom_relaxed=-7.53354357 mp_id=mp-1001603 energy_per_atom=-7.533976078033447 ef_per_atom_relaxed=-7.53354357 corrected_total_energy=-7.533976078033447 ef_per_atom=-0.34297602250000025 task_id=mp-1066516 calc_id=1 ionic_step=4 energy=-30.13590431213379 pbc="T T T"
Lu       0.00000000       0.00000000       0.00270563      -0.00000000      -0.00000013       0.09611464
Ni      -1.73355387      -2.24546506       0.67259678       0.00000001      -0.00000036      -0.06114900
C       -1.73355387      -2.92860366      -1.18868332       0.00000002      -0.69727308      -0.01748264
C       -1.73355387      -1.56232646      -1.18868332       0.00000001       0.69727373      -0.01748335
4
Lattice="-3.50481741 0.0 0.0 0.0 -2.25505868 -3.00265911 0.0 -2.25505868 3.00265911" Properties=species:S:1:pos:R:3:forces:R:3 e_per_atom_relaxed=-7.53354357 mp_id=mp-1001603 energy_per_atom=-7.45434045791626 ef_per_atom_relaxed=-7.53354357 corrected_total_energy=-7.45434045791626 ef_per_atom=-0.3167356150000007 task_id=mp-1066516 calc_id=1 ionic_step=1 energy=-29.81736183166504 pbc="T T T"
Lu       0.00000000       0.00000000       0.00435812       0.00000003      -0.00000055      -0.10921395
Ni      -1.75240870      -2.25505868       0.66334823       0.00000004       0.00000119       0.75883585
C       -1.75240870      -2.91370003      -1.18961102      -0.00000003      -3.16811132      -0.32481140
C       -1.75240870      -1.59641733      -1.18961102      -0.00000004       3.16811037      -0.32481033
4
Lattice="2.248678 -2.979562 0.0 2.248678 2.979562 0.0 0.0 0.0 3.468055" Properties=species:S:1:pos:R:3:forces:R:3 bandgap=0.0 e_per_atom_relaxed=-7.53354357 mp_id=mp-1001603 energy_per_atom=-7.536512494087219 ef_per_atom_relaxed=-7.53354357 corrected_total_energy=-7.536512494087219 ef_per_atom=-0.3449655800000002 task_id=mp-1438522 calc_id=0 ionic_step=0 energy=-30.146049976348877 pbc="T T T"
Lu       2.24867800       2.97366247       0.00000000       0.00000181      -0.00387496       0.00000017
Ni       2.24867800      -0.66917387       1.73402750       0.00000140       0.00757051       0.00000002
C        2.93731090       1.18670889       1.73402750       0.34544089      -0.00184673       0.00000004
C        1.56004510       1.18670889       1.73402750      -0.34544373      -0.00184911      -0.00000003
84
Lattice="8.576111 0.0 0.0 0.0 -12.128452 0.0 0.0 6.064226 -10.503548" Properties=species:S:1:pos:R:3:forces:R:3 bandgap=0.0519 e_per_atom_relaxed=-6.646093135595239 mp_id=mp-1001608 energy_per_atom=-6.362334364936466 ef_per_atom_relaxed=-6.646093135595239 corrected_total_energy=-6.362334364936466 ef_per_atom=0.7468279751785714 task_id=mp-1001608 calc_id=0 ionic_step=0 energy=-534.4360866546631 pbc="T T T"
C        5.30093709      -1.74065117      -7.18014138       3.61798906       3.48721218       1.36137605
C        4.41400427      -7.17772099      -4.40967305       2.40484071      19.68561935      -3.39282274
C        1.70045414       0.80527463      -9.41728157       1.97173071     -10.65107918       0.45021534
C        5.22913789      -1.68441154      -9.27780496       4.32154942       3.20692158      -6.98249912
C        3.59740413      -6.59482758      -3.22420060       3.10192227      -6.06029129      -8.10043335
C        2.59658913       0.17708146      -8.50509044      -3.69383621       7.01599216      -3.23158693
C        0.99055797      -5.03618809      -8.56401534       4.30611706      -2.23499513      -1.08312297
C        1.51874350       0.65454830      -1.29265065       5.04707718      -4.08140039      -0.48996803
C        8.51122414     -10.35411405      -0.64688201       5.93091679      -1.96801734       0.80732071
C        1.32060960      -5.40005984      -6.63895658      -5.07085228       2.29806948       6.03922939
C        2.04734925       0.15028365      -2.97452077     -18.08671379      20.64680099       3.73952365
C        7.46803458      -9.74694555      -0.89007066      -9.73447895       3.85997319      -9.13420582
C        0.63618449      -3.77393764      -0.21479756       1.50123572      -6.69859028       3.22802067
C        5.81984326      -1.37510570      -3.94010143       4.63949585       3.67969084      -0.13158032
C        5.99522473      -7.56335725      -6.34864901       1.86175585      10.26440525      -0.28616390
C        0.70119999      -2.56019493      -0.29846882      -0.47538188      12.73397255      -1.86864519
C        6.64393034      -0.69810763      -2.92676113       2.28646326       2.51994944       1.21978068
C        6.88762911      -6.93466681      -7.27831805      -3.25294089      -7.84149265       4.02758026
C        4.93002887      -9.05063293      -5.04782661       1.13273919       6.80509853      -3.09734178
C        0.11558025      -5.64629774      -0.84865517       2.37648511     -19.64615250       2.73472404
C        4.23711340      -2.49644779      -4.60706622       1.94108868       0.57912016       2.32063580
C        4.99467559       1.86397327      -4.95824185       0.57070893     -12.46051788       3.04495525
C        7.86994544      -6.23338152      -2.02384464       2.31434464       8.39324284       9.35000992
C        3.34221337      -3.03179766      -3.52146152      10.57535267       4.53257465       3.64780259
C        4.94463398      -2.00548805      -3.30395404      -3.73282075      -2.34645367      -1.06578767
C        5.80918316       3.44740939      -6.14074178      -3.53749228     -12.98353004       2.18269682
C        8.50685033      -4.52435528      -1.05885217      -2.66433716      15.54058075      -3.33691859
C        4.60218987      -2.35713433      -1.37752982       5.82022762       1.90820992       6.44225311
C        6.34699108       2.47333702      -6.98909235       2.29878139      -2.97817898      -3.14262938
C        7.47173946      -4.38621828      -2.13692583      13.03531837     -11.53699780      10.05634308
C        0.64573828     -10.83709933      -1.93803065      -3.45775485       3.94263172       1.27012825
C        0.12192657      -4.40248253      -9.20705306      -4.35480976       4.84342575      -0.23885930
C        1.70432196      -5.52140500      -9.86201230      -1.54687202       0.58815843       2.22516799
C        0.71879817       1.34240739      -4.03625091      -4.44380808       4.04076862      -6.74687862
C        7.87753530      -3.71959004      -8.20320797      -2.06656313       1.85958862       1.48108840
C        2.59701793      -6.04992049      -8.76763713     -12.50495338       4.12234306       3.26926613
C        0.98681021       0.05139432     -10.25487650      -2.11704850       1.04448402      -3.45743966
C        4.42591648      -2.38042095      -6.54019172      -4.89735508      -3.95118642      -1.10155058
C        4.22287706      -8.30107640      -4.21202778      -3.10555887     -15.19973946       3.76003385
C        1.32370558      -1.06178533      -9.64511403      12.73591614      21.70897484       7.35621643
C        3.88771406      -2.87481304      -8.22172572      19.64408493      18.39089203       4.72163200
C        3.18680566      -8.44342198      -3.14025625      13.46705341      11.27897263      -9.50761318
C        5.28338179      -6.80967098      -5.51615881      -2.30338955      -0.73107708       3.68158245
C        1.50898388       1.92345727      -9.61006369      -2.84226155      12.72508049      -2.08145714
C        6.01290867      -1.26129837      -5.88087350      -5.60761261      -1.73096049       0.87651396
C        5.62024285      -5.69784972      -6.14415544      12.34841728     -20.93055344      -5.73790693
C        2.03878172       2.89884557      -8.74577924       1.92291737       2.21978998       3.26149511
C        7.05545503      -0.64848407      -6.11716132       8.22967339       3.99777699      -7.59133053
O        4.39990514      -2.42066922      -9.82298111      -3.20673609      -2.58281446       2.72722149
O        2.85422408      -7.39192764      -2.57362135      -2.49227667       1.07543886       1.79386640
O        2.29855212      -0.93477618      -8.61049354      -3.08831453     -14.89409256      -2.08569074
O        5.69022392      -1.11784304     -10.41865833       2.05212116      -0.13985959       3.13846350
O        3.53227714      -5.65617030      -2.72782393       2.53828669      23.38809776       6.94665146
O        3.46296501       0.45706678      -7.86061374       9.66371346       5.49206209       7.14048862
O        0.87317674      -5.31159491      -5.13117226       1.62629867       0.17039953      -5.37165356
O        2.72545377      -0.55712651      -3.10380894      23.43031693     -25.17337036      -3.32954359
O        6.91503836      -9.58383606      -2.26856680       2.43212843      -0.83159459       6.70215559
O        1.52677074       3.82097784      -9.52168684       0.01248142       7.89920998       1.05862892
O        7.39073809      -0.32547307      -4.30354520       1.38176918       1.58922720       3.33190870
O        6.58905181      -5.82281523      -7.18187447      -3.79739666      15.67415142       1.45498753
O        0.23919631      -1.90419122      -1.27769359       1.62214327       0.46341026       3.55796695
O        6.70802820      -0.41411387      -1.30317520       0.49878091      -1.55764461      -7.55385113
O        7.75126922      -7.21602264      -7.92266870       9.32564068      -6.05571079      -6.90932941
O        5.83167830       1.54879726      -6.20605285       1.20801973      -7.62690926      -0.36390132
O        7.13766563      -5.43890121      -2.69799386      -1.86170924      -1.72930813      -2.14988804
O        3.62877554      -2.95774133      -1.59950130      -4.94045401      -3.34176874      -0.05239627
O        4.51696048       1.20777551      -3.99563369       2.27498245      -0.67579722      -2.83444548
O        7.79892667      -7.17715701      -2.48833254       1.16617024     -23.80675125      -6.93899202
O        2.48523690      -3.41980503      -4.01957127     -14.87364197      -6.61509418      -4.32482910
O        5.03044655       3.82168735     -10.36395585      -1.48580849       0.07272177      -6.43614388
O        7.04738491       2.39549662      -8.17290523      -3.39214087      -0.34925425       5.71022320
O        6.93340839      -3.58813582      -2.47023492     -15.66854382      27.60366631      -8.33488941
O        1.54893141       0.60980644      -4.57496738       3.09105992      -3.08160305       2.71370935
O        7.13958668      -3.34338366      -9.58500222      -2.19750357       1.24576557       3.82243633
O        2.29892089      -5.98474219      -6.84712640       6.14810085      -1.53491664       0.44349909
O        0.24721498       1.89629560      -5.17797607      -1.33990145       0.80009127       3.48708987
O        7.80309466      -3.44651795      -6.57509501      -0.99744034      -0.66712427      -7.29437685
O        3.45478340      -6.43602370      -9.25402492      15.92190552      -7.09624195      -5.57104683
O        0.89970265      -1.94206231      -9.85103609     -15.23801136     -35.16615677      -5.83483410
O        3.18119689      -3.55532836      -8.36180104     -24.30079079     -23.22861862      -4.16374588
O        2.64842314      -9.24281431      -2.79425887     -15.39994907     -27.97605133       7.74735498
O        5.19103423      -4.82005301      -5.94765506     -14.13003159      34.25210953       6.06097889
O        2.73969869       2.97752284      -7.55816408      -3.50931621       1.10913825      -5.87625074
O        7.59593012      -0.45635726      -7.50127686      -2.38130975      -0.59390694       6.83932400
4
Lattice="0.0 0.0 -4.01251484 -4.25565053 0.0 0.0 2.12782527 5.26973932 -0.0" Properties=species:S:1:pos:R:3:forces:R:3 bandgap=0.0 e_per_atom_relaxed=-4.3831446575 mp_id=mp-1001613 energy_per_atom=-4.391433477401733 ef_per_atom_relaxed=-4.3831446575 corrected_total_energy=-4.391433477401733 ef_per_atom=-0.6054989074999995 task_id=mp-1067797 calc_id=0 ionic_step=3 energy=-17.565733909606934 pbc="T T T"
Lu       0.00000000       1.45380651      -3.00938613      -0.00000001       0.09045395       0.00000122
Lu      -2.12782526       3.81593281      -1.00312871       0.00000001      -0.09045552      -0.00000123
Ga      -0.00000002       4.44401633      -3.00938613       0.00000006      -0.07540104      -0.00000104
Ga      -2.12782524       0.82572299      -1.00312871      -0.00000004       0.07540254       0.00000108
4
Lattice="0.0 0.0 -4.03203551 -4.25886087 0.0 0.0 2.12943043 5.27801672 0.0" Properties=species:S:1:pos:R:3:forces:R:3 e_per_atom_relaxed=-4.3831446575 mp_id=mp-1001613 energy_per_atom=-4.4019317626953125 ef_per_atom_relaxed=-4.3831446575 corrected_total_energy=-4.4019317626953125 ef_per_atom=-0.6049165424999998 task_id=mp-1067797 calc_id=0 ionic_step=0 energy=-17.60772705078125 pbc="T T T"
Lu      -0.00000000       1.45253237      -3.02402663       0.00000008       0.10344125      -0.00000030
Lu      -2.12943044       3.82548435      -1.00800888      -0.00000010      -0.10344110       0.00000015
Ga       0.00000002       4.45347867      -3.02402663      -0.00000027      -0.03365143       0.00000210
Ga      -2.12943046       0.82453805      -1.00800888       0.00000027       0.03365129      -0.00000196
4
Lattice="0.0 -0.0 -4.03336976 -4.2566586 0.0 0.0 2.1283293 5.28614865 0.0" Properties=species:S:1:pos:R:3:forces:R:3 e_per_atom_relaxed=-4.3831446575 mp_id=mp-1001613 energy_per_atom=-4.40078341960907 ef_per_atom_relaxed=-4.3831446575 corrected_total_energy=-4.40078341960907 ef_per_atom=-0.6044359799999999 task_id=mp-1067797 calc_id=1 ionic_step=3 energy=-17.60313367843628 pbc="T T T"
Lu      -0.00000002       1.45142328      -3.02502732       0.00000002       0.11134015      -0.00000001
Lu      -2.12832928       3.83472537      -1.00834244       0.00000003      -0.11133987      -0.00000006
Ga       0.00000000       4.46522203      -3.02502732       0.00000002      -0.08861406       0.00000250
Ga      -2.12832930       0.82092662      -1.00834244       0.00000004       0.08861369      -0.00000244
4
Lattice="0.0 -0.0 -4.03722974 -4.25028744 0.0 0.0 2.12514372 5.30967438 0.0" Properties=species:S:1:pos:R:3:forces:R:3 e_per_atom_relaxed=-4.3831446575 mp_id=mp-1001613 energy_per_atom=-4.396372199058533 ef_per_atom_relaxed=-4.3831446575 corrected_total_energy=-4.396372199058533 ef_per_atom=-0.6019617574999998 task_id=mp-1067797 calc_id=1 ionic_step=2 energy=-17.58548879623413 pbc="T T T"
Lu       0.00000000       1.44819978      -3.02792230       0.00000008       0.17033163       0.00000025
Lu      -2.12514372       3.86147460      -1.00930743      -0.00000008      -0.17033172      -0.00000024
Ga       0.00000000       4.49921747      -3.02792230      -0.00000006      -0.27303627       0.00000099
Ga      -2.12514372       0.81045691      -1.00930743       0.00000007       0.27303642      -0.00000103
4
Lattice="0.0 -0.0 -4.07421188 -4.29033208 0.0 0.0 2.14516604 5.34315121 0.0" Properties=species:S:1:pos:R:3:forces:R:3 e_per_atom_relaxed=-4.3831446575 mp_id=mp-1001613 energy_per_atom=-4.453878164291382 ef_per_atom_relaxed=-4.3831446575 corrected_total_energy=-4.453878164291382 ef_per_atom=-0.5982687725 task_id=mp-1067797 calc_id=1 ionic_step=1 energy=-17.815512657165527 pbc="T T T"
Lu       0.00000000       1.46460594      -3.05565891      -0.00000001       0.22118527      -0.00000011
Lu      -2.14516604       3.87854527      -1.01855297      -0.00000001      -0.22118533      -0.00000024
Ga       0.00000002       4.52059921      -3.05565891      -0.00000094      -0.09706509      -0.00000244
Ga      -2.14516606       0.82255200      -1.01855297       0.00000094       0.09706506       0.00000284
4
Lattice="0.0 0.0 -3.964682 -4.171732 0.0 0.0 2.085866 5.244003 0.0" Properties=species:S:1:pos:R:3:forces:R:3 e_per_atom_relaxed=-4.3831446575 mp_id=mp-1001613 energy_per_atom=-4.289352297782898 ef_per_atom_relaxed=-4.3831446575 corrected_total_energy=-4.289352297782898 ef_per_atom=-0.5861546424999995 task_id=mp-1067797 calc_id=1 ionic_step=0 energy=-17.157409191131592 pbc="T T T"
Lu       0.00000000       1.41588081      -2.97351150      -0.00000003       0.56097728       0.00000165
Lu      -2.08586600       3.82812219      -0.99117050       0.00000001      -0.56097639      -0.00000198
Ga       0.00000000       4.45740255      -2.97351150       0.00000002      -0.48847502       0.00000268
Ga      -2.08586600       0.78660045      -0.99117050      -0.00000000       0.48847407      -0.00000234
4
Lattice="0.0 0.0 4.01071743 4.23344571 0.0 0.0 -2.11672286 5.30370921 0.0" Properties=species:S:1:pos:R:3:forces:R:3 bandgap=0.0 e_per_atom_relaxed=-4.3831446575 mp_id=mp-1001613 energy_per_atom=-4.372607707977295 ef_per_atom_relaxed=-4.3831446575 corrected_total_energy=-4.372607707977295 ef_per_atom=-0.6109061674999996 task_id=mp-1001613 calc_id=0 ionic_step=1 energy=-17.49043083190918 pbc="T T T"
Lu      -0.00000000       1.46778392       1.00267936      -0.00000001       0.04867914      -0.00000001
Lu       2.11672285       3.83592529       3.00803807       0.00000002      -0.04867924       0.00000001
Ga       0.00000002       4.46986243       1.00267936      -0.00000016      -0.04173496       0.00000001
Ga       2.11672283       0.83384678       3.00803807       0.00000013       0.04173505      -0.00000000
4
Lattice="0.0 0.0 4.02275779 4.24295336 0.0 0.0 -2.12147668 5.31670116 0.0" Properties=species:S:1:pos:R:3:forces:R:3 e_per_atom_relaxed=-4.3831446575 mp_id=mp-1001613 energy_per_atom=-4.386992573738098 ef_per_atom_relaxed=-4.3831446575 corrected_total_energy=-4.386992573738098 ef_per_atom=-0.6104534749999999 task_id=mp-1001613 calc_id=0 ionic_step=0 energy=-17.547970294952393 pbc="T T T"
Lu       0.00000000       1.46695622       1.00568945      -0.00000001       0.08660843       0.00000036
Lu       2.12147668       3.84974494       3.01706834      -0.00000000      -0.08660697      -0.00000053
Ga       0.00000000       4.48498886       1.00568945       0.00000001      -0.06711677      -0.00000214
Ga       2.12147668       0.83171230       3.01706834       0.00000003       0.06711535       0.00000234
4
Lattice="0.0 -0.0 4.02649168 4.24538974 0.0 0.0 -2.12269487 5.32096419 0.0" Properties=species:S:1:pos:R:3:forces:R:3 e_per_atom_relaxed=-4.3831446575 mp_id=mp-1001613 energy_per_atom=-4.390783905982971 ef_per_atom_relaxed=-4.3831446575 corrected_total_energy=-4.390783905982971 ef_per_atom=-0.6099299474999995 task_id=mp-1001613 calc_id=1 ionic_step=3 energy=-17.563135623931885 pbc="T T T"
Lu       0.00000002       1.46453968       1.00662292       0.00000002       0.09959327      -0.00000089
Lu       2.12269485       3.85642451       3.01986876      -0.00000004      -0.09959283       0.00000011
Ga       0.00000002       4.49240275       1.00662292       0.00000034      -0.10787112       0.00000271
Ga       2.12269485       0.82856144       3.01986876      -0.00000031       0.10787064      -0.00000192
4
Lattice="0.0 0.0 4.03728859 4.25243476 0.0 0.0 -2.12621738 5.33329116 0.0" Properties=species:S:1:pos:R:3:forces:R:3 e_per_atom_relaxed=-4.3831446575 mp_id=mp-1001613 energy_per_atom=-4.401268362998962 ef_per_atom_relaxed=-4.3831446575 corrected_total_energy=-4.401268362998962 ef_per_atom=-0.6074808574999997 task_id=mp-1001613 calc_id=1 ionic_step=2 energy=-17.60507345199585 pbc="T T T"
Lu       0.00000000       1.45754367       1.00932215       0.00000003       0.15125707       0.00000002
Lu       2.12621738       3.87574749       3.02796644       0.00000003      -0.15125808      -0.00000004
Ga       0.00000002       4.51384959       1.00932215       0.00000005      -0.22358091       0.00000003
Ga       2.12621736       0.81944157       3.02796644      -0.00000001       0.22358184      -0.00000001
4
Lattice="0.0 0.0 4.0001 4.209 0.0 0.0 -2.1045 5.29085 0.0" Properties=species:S:1:pos:R:3:forces:R:3 e_per_atom_relaxed=-4.3831446575 mp_id=mp-1001613 energy_per_atom=-4.3363518714904785 ef_per_atom_relaxed=-4.3831446575 corrected_total_energy=-4.3363518714904785 ef_per_atom=-0.6003174874999999 task_id=mp-1001613 calc_id=1 ionic_step=0 energy=-17.345407485961914 pbc="T T T"
Lu       0.00000000       1.42852950       1.00002500      -0.00000009       0.38754216      -0.00000000
Lu       2.10450000       3.86232050       3.00007500       0.00000009      -0.38754201       0.00000001
Ga       0.00000000       4.49722250       1.00002500      -0.00000086      -0.49856102       0.00000000
Ga       2.10450000       0.79362750       3.00007500       0.00000092       0.49856079       0.00000000
4
Lattice="2.116723 -5.303709 0.0 2.116723 5.303709 0.0 0.0 0.0 4.010717" Properties=species:S:1:pos:R:3:forces:R:3 bandgap=0.0 e_per_atom_relaxed=-4.3831446575 mp_id=mp-1001613 energy_per_atom=-4.372608423233032 ef_per_atom_relaxed=-4.3831446575 corrected_total_energy=-4.372608423233032 ef_per_atom=-0.6086244374999996 task_id=mp-1441069 calc_id=0 ionic_step=0 energy=-17.49043369293213 pbc="T T T"
Lu       2.11672300      -3.83592875       1.00267925      -0.00000000       0.04867227      -0.00000104
Lu       2.11672300       3.83592875       3.00803775      -0.00000002      -0.04867209       0.00000097
Ga       2.11672300      -0.83384913       1.00267925      -0.00000000      -0.04170996       0.00000161
Ga       2.11672300       0.83384913       3.00803775       0.00000003       0.04170981      -0.00000150
4
Lattice="-1.87050047 -3.23977998 -0.00026117 -1.8704815 3.23976903 0.0 -0.00045492 -0.00026265 -6.70161226" Properties=species:S:1:pos:R:3:forces:R:3 bandgap=0.0 e_per_atom_relaxed=-5.95470658 mp_id=mp-1001615 energy_per_atom=-5.710750877857208 ef_per_atom_relaxed=-5.95470658 corrected_total_energy=-5.710750877857208 ef_per_atom=-1.592555517838542 task_id=mp-1064514 calc_id=0 ionic_step=2 energy=-22.843003511428833 pbc="T T T"
Li      -0.00022746      -0.00013133      -3.35080613       0.00000005       0.00000006       0.00000003
Zr       0.00000000       0.00000000       0.00000000      -0.00000024      -0.00000016       0.00000063
Se      -1.87072625       1.07978172      -1.70127506       0.00180800       0.00104438       0.01198678
Se      -1.87071064      -1.08005532      -5.00059837      -0.00180771      -0.00104418      -0.01198715
4
Lattice="-1.86580461 -3.23189646 -0.00011947 -1.8660021 3.23201048 0.0 -0.00020085 -0.00011596 -6.68865968" Properties=species:S:1:pos:R:3:forces:R:3 e_per_atom_relaxed=-5.95470658 mp_id=mp-1001615 energy_per_atom=-5.703184247016907 ef_per_atom_relaxed=-5.95470658 corrected_total_energy=-5.703184247016907 ef_per_atom=-1.5923172353385422 task_id=mp-1064514 calc_id=0 ionic_step=0 energy=-22.812736988067627 pbc="T T T"
Li      -0.00010043      -0.00005798      -3.34432984      -0.00000035      -0.00000022      -0.00000035
Zr       0.00000000       0.00000000       0.00000000       0.00000111      -0.00000054       0.00000416
Se      -1.86612177       1.07726772      -1.69856315       0.00128475       0.00074155      -0.04467466
Se      -1.86588579      -1.07726966      -4.99021600      -0.00128554      -0.00074080       0.04467101
4
Lattice="-1.87216825 -3.24214965 -0.00020355 -1.8716998 3.24187919 0.0 -0.00035426 -0.00020453 -6.6246826" Properties=species:S:1:pos:R:3:forces:R:3 e_per_atom_relaxed=-5.95470658 mp_id=mp-1001615 energy_per_atom=-5.715839087963104 ef_per_atom_relaxed=-5.95470658 corrected_total_energy=-5.715839087963104 ef_per_atom=-1.5887758353385417 task_id=mp-1064514 calc_id=1 ionic_step=7 energy=-22.863356351852417 pbc="T T T"
Li      -0.00017713      -0.00010226      -3.31234130      -0.00000042       0.00000040       0.00000024
Zr       0.00000000       0.00000000       0.00000000       0.00000097      -0.00000191      -0.00000341
Se      -1.87206152       1.08041754      -1.68541017       0.00163169       0.00094253       0.04831985
Se      -1.87216079      -1.08089253      -4.93947598      -0.00163210      -0.00094096      -0.04831676
4
Lattice="-1.87920194 -3.25521514 2.649e-05 -1.879498 3.25538608 -0.0 5.049e-05 2.915e-05 -6.60828054" Properties=species:S:1:pos:R:3:forces:R:3 e_per_atom_relaxed=-5.95470658 mp_id=mp-1001615 energy_per_atom=-5.72527402639389 ef_per_atom_relaxed=-5.95470658 corrected_total_energy=-5.72527402639389 ef_per_atom=-1.5878724603385426 task_id=mp-1064514 calc_id=1 ionic_step=5 energy=-22.90109610557556 pbc="T T T"
Li       0.00002524       0.00001458      -3.30414027      -0.00000020       0.00000018      -0.00000096
Zr       0.00000000       0.00000000       0.00000000      -0.00000251      -0.00000148       0.00000241
Se      -1.87945010       1.08515635      -1.69399917       0.00039761       0.00023116       0.31007010
Se      -1.87919935      -1.08495626      -4.91425488      -0.00039485      -0.00022987      -0.31007159
4
Lattice="-1.86111154 -3.22390131 6.743e-05 -1.86142463 3.22408207 -0.0 0.00012181 7.033e-05 -6.63400282" Properties=species:S:1:pos:R:3:forces:R:3 e_per_atom_relaxed=-5.95470658 mp_id=mp-1001615 energy_per_atom=-5.693312406539917 ef_per_atom_relaxed=-5.95470658 corrected_total_energy=-5.693312406539917 ef_per_atom=-1.5856581228385418 task_id=mp-1064514 calc_id=1 ionic_step=4 energy=-22.773249626159668 pbc="T T T"
Li       0.00006091       0.00003516      -3.31700141      -0.00000038       0.00000033       0.00000025
Zr       0.00000000       0.00000000       0.00000000      -0.00000103       0.00000105      -0.00000121
Se      -1.86137817       1.07472085      -1.72501276       0.00058295       0.00033656       0.45864576
Se      -1.86103619      -1.07446976      -4.90892263      -0.00058149      -0.00033792      -0.45864475
4
Lattice="-1.84733944 -3.20006229 9.861e-05 -1.84766548 3.20025053 -0.0 0.00017611 0.00010168 -6.65358502" Properties=species:S:1:pos:R:3:forces:R:3 e_per_atom_relaxed=-5.95470658 mp_id=mp-1001615 energy_per_atom=-5.659308075904846 ef_per_atom_relaxed=-5.95470658 corrected_total_energy=-5.659308075904846 ef_per_atom=-1.5804050728385424 task_id=mp-1064514 calc_id=1 ionic_step=3 energy=-22.637232303619385 pbc="T T T"
Li       0.00008805       0.00005084      -3.32679251       0.00000009       0.00000003      -0.00000078
Zr       0.00000000       0.00000000       0.00000000      -0.00000004      -0.00000007       0.00000020
Se      -1.84761972       1.06677660      -1.74869541       0.00073724       0.00042608       0.58766627
Se      -1.84720909      -1.06648668      -4.90479100      -0.00073732      -0.00042598      -0.58766568
4
Lattice="-1.85207602 -3.20828141 0.00010257 -1.85241516 3.20847721 -0.0 0.00018319 0.00010576 -6.67270873" Properties=species:S:1:pos:R:3:forces:R:3 e_per_atom_relaxed=-5.95470658 mp_id=mp-1001615 energy_per_atom=-5.671211838722229 ef_per_atom_relaxed=-5.95470658 corrected_total_energy=-5.671211838722229 ef_per_atom=-1.579630122838542 task_id=mp-1064514 calc_id=1 ionic_step=2 energy=-22.684847354888916 pbc="T T T"
Li       0.00009160       0.00005288      -3.33635437      -0.00000095       0.00000055       0.00000015
Zr       0.00000000       0.00000000       0.00000000       0.00000135      -0.00000096      -0.00000176
Se      -1.85236108       1.06952365      -1.75646803       0.00075878       0.00043688       0.47080603
Se      -1.85194691      -1.06922209      -4.91613813      -0.00075927      -0.00043640      -0.47080451
4
Lattice="-1.98148473 -3.43283706 0.00021079 -1.98218169 3.43323945 -0.0 0.00037646 0.00021735 -7.19519031" Properties=species:S:1:pos:R:3:forces:R:3 e_per_atom_relaxed=-5.95470658 mp_id=mp-1001615 energy_per_atom=-5.493434727191925 ef_per_atom_relaxed=-5.95470658 corrected_total_energy=-5.493434727191925 ef_per_atom=-1.3102070903385423 task_id=mp-1064514 calc_id=1 ionic_step=1 energy=-21.9737389087677 pbc="T T T"
Li       0.00018823       0.00010867      -3.59759516       0.00000055       0.00000045      -0.00000007
Zr       0.00000000       0.00000000       0.00000000       0.00000026       0.00000012       0.00000094
Se      -1.98190039       1.14457558      -1.96904063       0.00045881       0.00026470       1.96016860
Se      -1.98138957      -1.14395584      -5.22593889      -0.00045968      -0.00026534      -1.96017003
4
Lattice="-1.729425 -2.995452 0.0 -1.729425 2.995452 0.0 0.0 0.0 -6.177511" Properties=species:S:1:pos:R:3:forces:R:3 e_per_atom_relaxed=-5.95470658 mp_id=mp-1001615 energy_per_atom=-5.407356142997742 ef_per_atom_relaxed=-5.95470658 corrected_total_energy=-5.407356142997742 ef_per_atom=-1.2292879378385424 task_id=mp-1064514 calc_id=1 ionic_step=0 energy=-21.629424571990967 pbc="T T T"
Li       0.00000000       0.00000000      -3.08875550       0.00000065       0.00000048      -0.00000003
Zr       0.00000000       0.00000000       0.00000000       0.00000038       0.00000016       0.00000079
Se      -1.72959794       0.99838415      -1.54437775      -0.00273140      -0.00157523      -3.05766535
Se      -1.72925206      -0.99838415      -4.63313325       0.00273022       0.00157468       3.05766439
4
Lattice="3.75068662 4.487e-05 -0.00010252 -1.87530445 3.24812286 -0.0 -0.00018314 -0.00010574 6.71991209" Properties=species:S:1:pos:R:3:forces:R:3 bandgap=0.0 e_per_atom_relaxed=-5.95470658 mp_id=mp-1001615 energy_per_atom=-5.718521356582642 ef_per_atom_relaxed=-5.95470658 corrected_total_energy=-5.718521356582642 ef_per_atom=-1.589832502838542 task_id=mp-1001615 calc_id=0 ionic_step=0 energy=-22.874085426330566 pbc="T T T"
Li      -0.00009157      -0.00005287       3.35995605      -0.00000020      -0.00000018      -0.00000077
Zr       0.00000000       0.00000000       0.00000000      -0.00000127       0.00000050       0.00000217
Se       1.87509405       1.08258612       5.03078914      -0.00010483      -0.00006062       0.13718590
Se       0.00010498       2.16547587       1.68902043       0.00010636       0.00006019      -0.13718712
4
Lattice="3.76601567 7.659e-05 -0.00017499 -1.88294151 3.26135063 -0.0 -0.00031259 -0.00018048 6.76226057" Properties=species:S:1:pos:R:3:forces:R:3 e_per_atom_relaxed=-5.95470658 mp_id=mp-1001615 energy_per_atom=-5.726660251617432 ef_per_atom_relaxed=-5.95470658 corrected_total_energy=-5.726660251617432 ef_per_atom=-1.588124972838542 task_id=mp-1001615 calc_id=1 ionic_step=1 energy=-22.906641006469727 pbc="T T T"
Li      -0.00015630      -0.00009024       3.38113028       0.00000021      -0.00000050      -0.00000053
Zr       0.00000000       0.00000000       0.00000000       0.00000019       0.00000014       0.00000352
Se       1.88271362       1.08698533       5.05615372      -0.00092138      -0.00053171       0.28517446
Se       0.00004795       2.17426141       1.70593186       0.00092105       0.00053218      -0.28517744
4
Lattice="1.870486 -3.239777 0.0 1.870486 3.239777 0.0 0.0 0.0 6.701612" Properties=species:S:1:pos:R:3:forces:R:3 bandgap=0.0 e_per_atom_relaxed=-5.95470658 mp_id=mp-1001615 energy_per_atom=-5.710748672485352 ef_per_atom_relaxed=-5.95470658 corrected_total_energy=-5.710748672485352 ef_per_atom=-1.5925949703385422 task_id=mp-1438386 calc_id=0 ionic_step=0 energy=-22.842994689941406 pbc="T T T"
Li       0.00000000       0.00000000       3.35080600       0.00000002      -0.00000068       0.00000067
Zr       0.00000000       0.00000000       0.00000000      -0.00000007      -0.00000008      -0.00000009
Se       1.87048600      -1.07992783       5.00042120       0.00000003       0.00001135       0.01196641
Se       1.87048600       1.07992783       1.70119080      -0.00000001      -0.00001056      -0.01196708
2
Lattice="-2.48061713 -2.48061713 0.0 -2.48061713 -0.0 -2.48061713 -0.0 -2.48061713 -2.48061713" Properties=species:S:1:pos:R:3:forces:R:3 bandgap=0.0 e_per_atom_relaxed=-8.110813535 mp_id=mp-1001785 energy_per_atom=-8.08185064792633 ef_per_atom_relaxed=-8.110813535 corrected_total_energy=-8.08185064792633 ef_per_atom=0.020602720714286704 task_id=mp-1060328 calc_id=0 ionic_step=2 energy=-16.16370129585266 pbc="T T T"
Mo       0.00000000       0.00000000       0.00000000      -0.00000040      -0.00000038      -0.00000036
P       -2.48061713      -2.48061713      -2.48061713       0.00000038       0.00000038       0.00000036
2
Lattice="-2.54190355 -2.54190355 0.0 -2.54190355 -0.0 -2.54190355 0.0 -2.54190355 -2.54190355" Properties=species:S:1:pos:R:3:forces:R:3 e_per_atom_relaxed=-8.110813535 mp_id=mp-1001785 energy_per_atom=-7.9193644523620605 ef_per_atom_relaxed=-8.110813535 corrected_total_energy=-7.9193644523620605 ef_per_atom=0.06657108571428516 task_id=mp-1060328 calc_id=1 ionic_step=1 energy=-15.838728904724121 pbc="T T T"
Mo       0.00000000       0.00000000       0.00000000       0.00000005       0.00000001      -0.00000002
P       -2.54190355      -2.54190355      -2.54190355      -0.00000002       0.00000002       0.00000000
2
Lattice="-2.444938 -2.444938 0.0 -2.444938 0.0 -2.444938 0.0 -2.444938 -2.444938" Properties=species:S:1:pos:R:3:forces:R:3 e_per_atom_relaxed=-8.110813535 mp_id=mp-1001785 energy_per_atom=-8.127155423164368 ef_per_atom_relaxed=-8.110813535 corrected_total_energy=-8.127155423164368 ef_per_atom=0.035143400714286344 task_id=mp-1060328 calc_id=1 ionic_step=0 energy=-16.254310846328735 pbc="T T T"
Mo       0.00000000       0.00000000       0.00000000       0.00000001      -0.00000008       0.00000003
P       -2.44493800      -2.44493800      -2.44493800      -0.00000005       0.00000013      -0.00000015
2
Lattice="2.47962339 2.47962339 0.0 2.47962339 0.0 -2.47962339 -0.0 2.47962339 -2.47962339" Properties=species:S:1:pos:R:3:forces:R:3 bandgap=0.0 e_per_atom_relaxed=-8.110813535 mp_id=mp-1001785 energy_per_atom=-8.083250045776367 ef_per_atom_relaxed=-8.110813535 corrected_total_energy=-8.083250045776367 ef_per_atom=0.018637165714286752 task_id=mp-1001785 calc_id=1 ionic_step=2 energy=-16.166500091552734 pbc="T T T"
Mo       0.00000000       0.00000000       0.00000000       0.00000001      -0.00000008      -0.00000009
P        2.47962339       2.47962339      -2.47962339       0.00000000      -0.00000001       0.00000012
2
Lattice="2.45746764 2.45746764 0.0 2.45746764 0.0 -2.45746764 -0.0 2.45746764 -2.45746764" Properties=species:S:1:pos:R:3:forces:R:3 e_per_atom_relaxed=-8.110813535 mp_id=mp-1001785 energy_per_atom=-8.111791253089905 ef_per_atom_relaxed=-8.110813535 corrected_total_energy=-8.111791253089905 ef_per_atom=0.025363800714286455 task_id=mp-1001785 calc_id=1 ionic_step=1 energy=-16.22358250617981 pbc="T T T"
Mo       0.00000000       0.00000000       0.00000000      -0.00000004      -0.00000011       0.00000001
P        2.45746764       2.45746764      -2.45746764       0.00000004       0.00000005      -0.00000011
2
Lattice="2.495 2.495 0.0 2.495 0.0 -2.495 0.0 2.495 -2.495" Properties=species:S:1:pos:R:3:forces:R:3 e_per_atom_relaxed=-8.110813535 mp_id=mp-1001785 energy_per_atom=-8.059065818786621 ef_per_atom_relaxed=-8.110813535 corrected_total_energy=-8.059065818786621 ef_per_atom=0.02178380571428562 task_id=mp-1001785 calc_id=1 ionic_step=0 energy=-16.118131637573242 pbc="T T T"
Mo       0.00000000       0.00000000       0.00000000      -0.00000006       0.00000000       0.00000003
P        2.49500000       2.49500000      -2.49500000       0.00000004      -0.00000002       0.00000004
