49
Properties=species:S:1:pos:R:3:MACE_forces:R:3 smiles="[H:36][c:15]1[c:13]([n:6][c:12]([n:7][c:14]1[N:23]([H:39])[S:30](=[O:1])(=[O:2])[c:21]2[c:17]([c:18]([c:20]([c:16]([c:19]2[F:4])[H:37])[O:8][C@@:28]3([C@@:29]([C:27]([C:25]([C:24]([C:26]3([H:44])[H:45])([H:40])[H:41])([H:42])[H:43])([H:46])[H:47])([H:49])[N:22]4[C:11](=[C:10]([N:5]=[C:9]4[H:31])[H:32])[H:33])[H:48])[F:3])[H:38])[H:34])[H:35]" total_charge=0 config_type=PubChem MACE_energy=-49895.07408780096 pbc="F F F"
O        5.51825716       3.14633419      -0.33507405      -0.89268851      -2.65902525       0.82642843
O        4.28279974       4.32161905       1.22093805      -0.90166959      -2.64377807       1.52258663
F        1.87206461       0.37345472      -2.48914215      -0.31151247      -0.06604585       1.27731409
F        2.33516469       2.03171839       2.70100405      -0.46123401      -0.47968841      -1.31490091
N       -4.85607192      -0.95843480       3.19739940       0.37644364       2.92994152       1.09814373
N        6.69772150      -1.48933957       1.22808703       0.31351650       1.31880696      -0.33337813
N        5.56490280       0.20530536       2.35953679      -1.34510218      -0.93975644       0.36652574
O       -0.19975368      -0.18968788      -0.69202600       0.15307441      -0.08934851       0.81844984
C       -4.26878641      -1.46021364       2.17427327       2.10704317       1.43775460      -0.73605619
C       -4.34777114       0.37492405       3.32176687       1.31408324       0.16663306      -1.59169264
C       -3.39279649       0.69373696       2.33790293      -2.37487111      -2.34624678       1.36270828
C        5.83912231      -1.10957692       2.17313900       1.08757466       2.53819193      -0.44671209
C        7.33376934      -0.44337420       0.56667845       0.15808504      -2.19008978      -0.33867419
C        6.08183577       1.17718747       1.61275043       1.76888531      -3.83607587       2.45414137
C        7.12395908       0.92030393       0.76722046       0.64738892      -1.39168162      -0.82893979
C        1.12086793       0.79268937       1.05395558      -0.76746210       0.42582232       2.05888451
C        3.14839747       1.36237498      -0.81312964      -0.49730622       0.49470992       1.30020428
C        1.97455146       0.67780574      -1.14907620       1.69670049       0.51256412      -2.54927351
C        2.15182735       1.60173263       1.40842112       3.46272886       0.77271849      -0.17054225
C        0.98234173       0.42574491      -0.27701018      -3.06171873      -1.04557245       0.47755411
C        3.25839093       1.89955880       0.46801993      -1.17119183      -0.87242335       1.36310848
N       -3.33222149      -0.48660645       1.57661750       0.56962235      -1.14063442      -1.15557101
N        5.72633793       2.42959120       2.00848295       1.40934331       1.04764921      -5.08761426
C       -3.69406984       1.31155219      -1.13385663       1.84386530       1.73296595       0.53886986
C       -4.19416473      -0.05285320      -1.44332240      -0.17801189      -1.29324499      -2.75839354
C       -2.11783431       1.20618906      -1.19218490      -0.10864881       0.67817099      -0.81657167
C       -3.38970206      -1.28012714      -0.80938242      -1.42775509       1.74110524       1.45854334
C       -1.47070430       0.25561806      -0.11232136      -1.43531223       2.23057968      -1.05894600
C       -2.47091005      -0.82559011       0.31671097      -0.13328646      -0.61009293       1.17916983
S        4.70980694       2.95463898       0.88046282      -0.34423365       7.46934946      -4.98024581
H       -4.38649127      -2.54969094       1.99722054       0.53657845       1.16754332      -0.74632388
H       -4.54343841       1.19535383       4.00047924      -0.85475296      -0.88283272       0.55761884
H       -2.92747782       1.69524815       2.27756884      -0.02969612      -1.27299563      -0.64253519
H        5.41380837      -1.76913164       2.93957092       0.21506658      -0.08165164      -0.82505900
H        8.07340814      -0.85253451      -0.18004886      -0.76276698       0.90228970       0.94736534
H        7.77205898       1.67246511       0.34574067      -0.34939452      -0.00812452      -0.24476410
H        0.38814112       0.49445029       1.86361792       0.92599890       0.41794502      -1.32796810
H        3.88518693       1.55831434      -1.56773184       0.21122885       0.01471023      -0.09794760
H        5.29783298       2.49311735       2.80697396      -2.67948388      -0.00539820       6.18459677
H       -4.10938594       2.22486951      -1.73199604       0.82008395      -2.10365598       0.53323884
H       -3.98907468       1.55495669      -0.12801889      -0.03179311       0.19257236       0.59963174
H       -4.08881042      -0.16111551      -2.58202169      -0.31957369      -0.08759290       1.47394887
H       -5.26065013      -0.04118059      -1.24981115      -0.11054847      -0.66538759       0.20003184
H       -1.62319014       2.20379045      -1.07989237      -0.43098089      -0.80085460      -0.24462575
H       -1.89482425       0.83019872      -2.22617719       0.11154192       0.24332783       1.00340868
H       -4.09091423      -1.97878144      -0.31619046       0.33291058       0.13829982      -0.83884625
H       -2.74989149      -1.77148054      -1.49800680       0.17081373      -0.47865834      -0.93057901
H       -1.36976430       0.93434619       0.72705985       0.79262605      -0.31286528       0.24207517
H       -1.85417221      -1.66978786       0.60450411      -0.04420870      -0.26992963       0.22161226
6
Properties=species:S:1:pos:R:3:MACE_forces:R:3 smiles="[H:5][C:3](=[C:4]([Cl:1])[Br:2])[H:6]" total_charge=0 config_type=PubChem MACE_energy=-84677.92577027723 pbc="F F F"
Cl       2.36008634       1.24847200       1.35811486      -0.77785634      -0.31853832      -0.72036455
Br       1.38334980       0.38166582      -1.51099680       0.14078597       0.20657550       0.79106273
C       -0.22070406       0.42262282       0.84258454       2.37900443      -0.18605412      -0.53054379
C        1.03583862       0.66958140       0.35759265      -2.11271171      -0.36120725       0.58337392
H       -0.40229378       0.50368578       1.91064908       0.01560898       0.18844135      -0.25903775
H       -0.98121354      -0.05096451       0.21711897       0.35516866       0.47078284       0.13550944
33
Properties=species:S:1:pos:R:3:MACE_forces:R:3 smiles="[H:24][c:4]1[c:6]([c:12]([c:16]2[c:14]([c:8]1[H:28])[c:9]([c:10]3[c:15]4[c:17]2[c:13]([c:7]([c:5]([c:11]4[C:19]([C:18]3([H:32])[H:33])([C:3](=[C:2]([H:21])[H:22])[H:23])[O:1][H:20])[H:25])[H:27])[H:31])[H:29])[H:30])[H:26]" total_charge=0 config_type=PubChem MACE_energy=-20955.045559798014 pbc="F F F"
O        0.90795427       0.87076743      -2.91235111      -0.61995652      -0.16712827      -1.09262599
C       -1.79499648       0.10347911      -3.88250682       1.70460378      -0.71726768       2.78966932
C       -1.31300423      -0.19752262      -2.62753103       0.12853777       0.61427152      -2.85390504
C        1.18013473       2.25445821       4.88432171      -0.56538138      -0.06205999      -0.77307252
C        1.38416245      -1.54546711      -1.03480527      -1.07648605       0.59614533      -0.34824652
C        1.78861143       0.99526044       4.93848517       0.16498044       0.01888820      -0.94030633
C        2.00077345      -2.08693025       0.10304954      -0.21003995       1.17741047      -0.08543101
C        0.49770925       2.63558867       3.72958066       0.08303562       0.46148517       1.39522879
C       -0.03541956       2.30058326       1.35286190      -1.05695065      -0.56944005      -2.24887698
C       -0.00120143       1.47629746       0.23545861      -1.69470651       4.18994122       0.99590250
C        0.64055468      -0.36540035      -0.91547248       0.85245728      -2.14223574      -0.47213157
C        1.78599813       0.18719503       3.81544091      -0.04653577      -0.18760079       0.83405116
C        1.91581263      -1.41028640       1.31229295       0.30637427      -1.03388061      -0.53005638
C        0.49869361       1.84081306       2.57470204       0.62805534      -0.33794532       0.49440590
C        0.63723739       0.29567801       0.30285355       0.81629674      -2.53417808       0.03063204
C        1.15086820       0.57453282       2.62787773       0.12008988       0.90602363       0.96515990
C        1.21747270      -0.20395551       1.45560410       0.77228298      -1.05525652      -0.54776612
C       -0.58854232       1.64669528      -1.16167758       0.00141056       1.13830043       0.90236312
C       -0.08098207       0.45219867      -1.97112534       0.24147366      -0.20365322      -0.01409411
H        1.64373305       1.29399707      -2.46587894      -0.16610009      -0.10027339       0.26054723
H       -2.71342943      -0.37271843      -4.20774600       0.25830431       0.24808346      -0.22726467
H       -1.15928147       0.72943286      -4.50444457      -0.58771266      -0.00440785      -0.12612405
H       -1.84062216      -0.93203840      -2.04782698      -0.11552466       0.02101802       0.47801107
H        1.24005653       2.91490724       5.73704197      -0.20446536       0.00315294      -0.00153092
H        1.45064452      -2.06830690      -1.97990391      -0.01287712       0.10008665      -0.02913070
H        2.31200387       0.67732281       5.81665327       0.11529084      -0.09470245       0.32245905
H        2.60542919      -2.96899936      -0.02503524      -0.02688990      -0.15935956       0.29076343
H       -0.08657257       3.56195547       3.78055693       0.43583088      -0.28117445      -0.38893010
H       -0.54259501       3.25545909       1.26355644       0.15558029      -0.01635051       0.32578769
H        2.27407398      -0.78340290       3.88111450      -0.13340067       0.29031256      -0.09823708
H        2.44199862      -1.88129327       2.11268069       0.10739462       0.07816998       0.62474552
H       -0.28372047       2.59719874      -1.62943098      -0.26065076      -0.40272016       0.10039258
H       -1.67070816       1.61534931      -1.09554909      -0.11432121       0.22634505      -0.03238922
50
Properties=species:S:1:pos:R:3:MACE_forces:R:3 smiles="[H:33][c:8]1[c:10]([c:15]([c:23]([c:16]([c:11]1[H:36])[H:41])[C:30]([H:50])([c:24]2[c:17]([c:12]([c:9]([c:13]([c:18]2[H:43])[H:38])[H:34])[H:37])[H:42])[N:27]([H:47])[C:7](=[S+:6][H:32])[N-:5][N:26]([H:46])[c:21]3[c:14]([c:19]([c:25]([c:20]([c:22]3[N+:29](=[O:1])[O-:4])[H:45])[S:31](=[O:2])(=[O:3])[N:28]([H:48])[H:49])[H:44])[H:39])[H:40])[H:35]" total_charge=0 config_type=PubChem MACE_energy=-58378.52623983177 pbc="F F F"
O        4.85904600       0.76959746       4.05526855       0.57277500      -1.17826598      -3.30835147
O        6.37584736      -2.10563133      -1.80269192      -2.11474296       3.33625592       0.75915884
O        4.15640714      -1.77466223      -2.99606511      -0.13832966       1.63698407       1.22338550
O        6.39071276       0.66196286       2.44045963      -2.38548509      -0.27410142       1.31285115
N        0.93664881       0.28680707       3.29984285      -2.04781697       2.48253742      -1.11296222
S        1.63833048       2.57587745       2.00067641       1.01696825       1.72950367      -0.78923515
C        0.59416696       1.45461055       2.62016703      -2.58581100      -6.79093727       1.33162488
C       -5.09865615       3.96309759       1.34306129       1.57869923      -0.08111062      -1.13610107
C       -1.26317475      -0.70722387      -2.35031245       0.78325895      -0.56057140       1.51584155
C       -3.98723314       4.69295456       0.79587426      -1.69837057      -0.50990159       1.00942974
C       -4.84672353       2.61175730       1.66392949      -2.11104849       2.78415043       0.36016034
C       -1.11528037      -1.23340068      -1.01514397      -0.45328716       0.30354701      -1.55947120
C       -1.33482573       0.65463682      -2.57350443      -0.06654659       0.64861666       1.45584935
C        2.21617677      -1.16168449       1.14405443      -1.87206304      -0.42726333       0.26626021
C       -2.69603918       4.17277314       0.75070720       0.39250748       0.41633707      -0.13466127
C       -3.56557415       2.14936592       1.55896534      -1.23869575      -3.54303729       0.46776939
C       -1.17187617      -0.35790257       0.07212313      -0.19891722       0.07515271       0.37748590
C       -1.34969053       1.53677442      -1.46321652      -0.03571826      -1.66764049       0.24889638
C        2.77478315      -1.65691945      -0.03736249      -0.61184849       0.51880880      -0.20997303
C        4.93830254      -0.86138532       0.72754989      -1.44429921       0.20026935       0.32116654
C        2.94893005      -0.54741213       2.17308189       0.31637946       1.55910490       1.05996929
C        4.39141228      -0.35077105       1.94884529      -1.52657024      -0.99769578      -0.60612437
C       -2.48048184       2.80710413       1.08302422      -0.18725380       1.21314286       0.20430212
C       -1.25711212       1.03539731      -0.11672924       0.10495945      -1.12134816      -4.12327075
C        4.11706712      -1.50654671      -0.24153743       2.57419068       2.57137724       1.69229540
N        2.24324634       0.02570202       3.30304124       5.93288890      -0.96774244      -0.23207475
N       -0.72359846       1.33819510       2.24805107       0.26752565       3.85777060      -1.85207921
N        4.67587806      -3.59207961      -1.52443311      -0.91975231      -1.27174938       1.62510350
N        5.24507381       0.41446009       2.88845469       1.68526869       0.53487461       0.56044142
C       -1.18390928       2.01607134       0.93014445      -0.36591116       1.72755365       3.68944826
S        4.88030006      -2.00800321      -1.76254795       3.36510085      -3.01751798      -1.58373318
H        2.57892825       1.93829634       2.69732930       0.78180205      -0.00845086       0.16897051
H       -6.09283731       4.43965937       1.42276796       0.76052337      -0.48457803      -0.10226229
H       -1.23974273      -1.34201584      -3.22077463       0.03748528      -0.36403644       0.13200176
H       -4.21679160       5.69171860       0.43756162       0.44789803       0.01063121       0.20431442
H       -5.74062393       2.07988741       2.02709188       1.04221005      -0.33389879      -0.11446321
H       -0.96335194      -2.32924173      -0.89798281      -0.34382128       1.06728261       0.09904640
H       -1.33658872       1.03670766      -3.58911941      -0.22106086       0.02165960       0.21533815
H        1.11076542      -1.21269605       1.41954126       1.63873223      -0.12823304      -0.88317655
H       -1.92581389       4.95195582       0.51205246      -0.34692382      -1.42393320      -0.08512470
H       -3.53111312       1.06215986       1.80367484       0.62686026       0.82325788      -0.23344955
H       -1.21699283      -0.73919282       1.11262669       0.45302423       0.11445325      -0.99566704
H       -1.50531385       2.58378770      -1.66990207       0.26420364       0.18714186       0.28666432
H        2.31406810      -2.06356881      -0.94226227      -0.98760083       0.01750934       0.93117011
H        5.95878174      -0.71597669       0.45125631       0.54524328       0.16772354       0.29948780
H        2.87130072       0.04375135       4.16116383      -1.70486095       0.26570788      -1.32199252
H       -1.29222379       0.64306795       2.69117977       0.22881112      -0.13708845      -0.02131834
H        4.31894686      -3.87782142      -2.37978718      -1.04276892      -1.36030352      -1.73630331
H        5.61623241      -3.91760824      -1.43968794       0.32197648      -0.72887218       0.27374853
H       -0.55692361       2.88246896       0.69835285       0.91021202      -0.89307650       0.04961339
18
Properties=species:S:1:pos:R:3:MACE_forces:R:3 smiles="[H:12][C:7](=[O:4])[O:6][C:10]([H:15])([H:16])[C:11]([H:17])([H:18])[C:8](=[O:5])[N:9]([H:13])[H:14].[H:2][O:1][H:3]" total_charge=0 config_type="DES370K Dimers" MACE_energy=-13982.452357366676 pbc="F F F"
O       -1.58406007       6.41059970       6.45756006      -0.19142895       1.07289831      -0.90156620
H       -1.98840010       6.35762977       5.56204986       0.47207664       0.07340501       1.06571732
H       -1.36359000       7.36246013       6.57425975      -0.29422995      -1.16841184      -0.18982482
O        0.00000000       0.00000000       0.00000000      -0.41993342       0.71322513       0.52104860
O       -2.91476011       4.80073023       2.10941004       2.58983557       1.11418051      -1.43957279
O       -0.05958000       1.64102006       1.54860997      -0.92922845       0.41187774      -0.38243204
C       -0.56604999       0.94185000       0.48097000       0.62230494       0.19944580       0.13990441
C       -1.84692991       5.14140033       1.52764010      -1.55162813      -3.02469888       1.55559543
N       -1.52998995       6.40815973       1.25609994       0.04055386       1.28718584      -0.09824997
C       -0.86057997       2.76783990       2.05581999      -0.43206584       0.46976973      -0.31615711
C       -0.76449001       4.04974031       1.16073000      -0.01801014       0.38908218       0.08134151
H       -1.50773000       1.35916996       0.07263000       0.12366475      -0.10883905       0.29610934
H       -2.17398000       7.11206006       1.62533998       0.50608660      -0.39101790      -0.52628868
H       -0.69902003       6.69848013       0.73480999      -0.72596286      -0.36749819       0.56327876
H       -1.94095993       2.53271008       2.11004996       0.66331831      -0.22879521      -0.00793630
H       -0.50489998       2.95594978       3.08712005      -0.10678686      -0.17654835      -0.77760212
H        0.22363000       4.54356002       1.23294997      -0.39509290      -0.49286168      -0.07882295
H       -0.91457999       3.74989986       0.10573000       0.04652683       0.22760086       0.49545761
49
Properties=species:S:1:pos:R:3:MACE_forces:R:3 smiles="[H:31][c:12]1[c:10]([c:14]([c:11]([c:13]([c:15]1[C:20]2([C:8](=[O:2])[C:19]([C:9](=[O:3])[C:24]2([H:48])[C:23]([H:46])([H:47])[C:25]([H:49])([C:16]([H:33])([H:34])[H:35])[C:17]([H:36])([H:37])[H:38])([H:40])[C:22]([H:44])([H:45])[C:21]([H:42])([H:43])[C:18]([H:39])([C:7](=[O:1])[O:4][H:26])[O:6][H:28])[H:41])[H:32])[H:30])[O:5][H:27])[H:29]" total_charge=0 config_type=PubChem MACE_energy=-32396.133160028454 pbc="F F F"
O        4.55839207       3.59983565      -0.08070240      -0.60609325       1.08611768      -0.12492061
O        0.66331023       3.01767781       0.64583595      -0.57365063       0.37178509      -0.71703214
O        2.25798835      -1.01376603       0.25834932      -2.42397409      -1.24101982       1.99212509
O        6.05880787       3.31182124       1.60219361      -1.04914841       0.76716554       0.10300763
O       -3.86414001       0.49125909      -4.19340703       1.18542162      -0.16592749       1.47354392
O        4.93468286       0.50459120       1.42670824       0.65069129       1.18196076       0.51415960
C        5.20988991       2.90045883       0.61650438       1.09892211      -1.59967525       0.25169775
C        0.70395454       1.83903565       0.35058027      -1.32960765       4.80272962       1.45994552
C        1.46301212      -0.17437563       0.71715841       5.50900925      -1.88900099      -3.65928376
C       -1.83736083      -0.20375673      -2.90596864      -0.36029578      -0.07740559       0.85191569
C       -3.48570345       1.26091715      -1.98861859       0.63108198       1.12804106       0.98188673
C       -1.08293913      -0.15691719      -1.71410773       1.01630490       0.86153737      -0.25825349
C       -2.61373780       1.51989140      -0.89330290      -0.34756156      -0.48925068       0.85703552
C       -3.04200194       0.51577605      -3.05091116       0.17081632      -0.64840709      -0.43744643
C       -1.38238130       0.79537734      -0.70874248      -1.64411342       0.23151672      -0.47069290
C       -1.61841533      -0.08422396       4.69769957       0.35971686      -2.28649713       0.74816515
C       -1.94801233      -2.00080822       3.10007932      -2.34006127       1.04884411      -1.11125189
C        5.36334707       1.38835897       0.32454701      -0.24092603      -2.91524278       0.19574386
C        1.98154285       1.18043097       0.29724537       1.71427944      -0.50048650       0.69337681
C       -0.54567227       0.99880247       0.56703573      -0.02638867      -0.77569503      -1.75986815
C        4.51024796       0.78470098      -0.85258899      -1.35030263       2.40439718      -0.96122068
C        2.94477775       1.26033720      -0.94314513      -0.66232478      -1.90064776      -1.17454099
C       -0.15177296      -0.27900223       2.68735983       0.14314787       0.06691200      -0.39654132
C        0.06149574      -0.25495801       1.14243402      -2.04262829      -2.97691717       0.25139672
C       -1.60095856      -0.51775381       3.24465801       3.28941276      -1.23067094       1.37923834
H        5.83744099       4.24724390       1.84438934       0.29142073      -1.10756661      -0.54269855
H       -3.36961934      -0.01075707      -4.83337829      -0.03438224      -0.26129777      -0.56743245
H        5.43704655      -0.32601384       1.41669871      -0.21700417       0.73005068      -0.24635020
H       -1.53678940      -0.92499945      -3.63770149       0.11837696      -0.10443984      -0.50444722
H       -4.48533246       1.69200172      -2.09474919       0.52781624       0.14919425       0.33263859
H       -0.11587677      -0.74725447      -1.66505597      -1.46249235       0.62678180      -0.00005956
H       -2.98074839       2.22435012      -0.07489929       0.69367310      -1.07420865      -1.25512228
H       -2.63142679      -0.09948484       5.04984810      -0.59172131       0.77619126       0.19302718
H       -1.05955062       0.80515423       4.85650971      -0.03515471       0.93193464       0.34805599
H       -1.18194101      -0.88975213       5.35766842       0.08691546       0.77688682      -0.79810686
H       -1.31101237      -2.77271841       3.47599937       0.79324823       0.10508634       0.51501524
H       -2.98148272      -2.16527650       3.53692272       1.10586075       0.00999642      -0.72708437
H       -1.97385905      -2.08036229       2.00619247      -0.43979585      -0.84263976       0.21302419
H        6.47093012       1.21482756       0.18570777      -1.12978408       0.30002627      -0.19184071
H        2.64445712       1.57939579       1.08133997      -0.78501591       0.09235832       0.25084443
H       -1.12891779       1.37706550       1.37600478      -0.50361383       1.08786950      -0.10557572
H        4.47994377      -0.29895506      -0.82291100       0.43629919       0.10059455       0.29012259
H        4.93190624       1.12653186      -1.83035037      -0.30937959      -0.37848203       0.69097880
H        2.87946560       2.22011700      -1.41250727       0.16500612       0.90908388       0.54505947
H        2.42057588       0.65681212      -1.74685452       0.99453074       0.03896625       0.81576942
H        0.30616870       0.64975261       3.07630660      -0.38400501      -0.32114373      -0.02529642
H        0.42502809      -1.10301778       3.05924417       0.55296693      -0.31334569       0.37345036
H       -0.41284649      -1.19804964       0.65064798       0.96291991       1.44415185       1.02511465
H       -2.27223036       0.06936171       2.72771623      -1.60841325       1.06978835      -1.31127256
45
Properties=species:S:1:pos:R:3:MACE_forces:R:3 smiles="[H:28][c:11]1[c:13]([c:16]([c:14]([c:12]([c:15]1[C:9]2=[C:10]([N:17]([N:4]=[C:8]2[H:26])[C:6](=[O:1])[O:5][C:25]([C:19]([H:32])([H:33])[H:34])([C:20]([H:35])([H:36])[H:37])[C:21]([H:38])([H:39])[H:40])[H:27])[H:29])[H:31])[N:18]3[C:7](=[O:2])[C:22]([C:24]([C:23]3([H:42])[H:43])([H:44])[H:45])([H:41])[Br:3])[H:30]" total_charge=0 config_type=PubChem MACE_energy=-99666.82078959755 pbc="F F F"
O        2.02067162       2.45295837      -4.34685943      -1.98513121      -1.02332313       2.75009383
O       -1.20472310       0.76089860       5.60201695      -0.89304241      -0.61696566      -1.16189700
Br      -1.80951975      -3.09211466       5.87798597      -0.32159822       0.88806684      -0.54512910
N        3.45931341       2.22314360      -1.70882079       0.37887099      -0.36887654      -0.98908009
O        0.12601956       1.71192851      -3.19446204       3.06231085       0.90339048       1.68978265
C        1.44079955       2.16396238      -3.28967688       2.23020208       1.10771302      -3.64394651
C       -0.58753190      -0.28777961       5.56925633      -1.24497888       1.53334842       3.50708459
C        3.47702744       1.78865197      -0.47577010       1.61718199       0.22344722       0.03687891
C        2.15419104       1.62694707       0.02652224       3.97456837      -0.60423000       2.55075663
C        1.34767242       1.92451968      -0.93279467      -2.67392302       0.83233301      -1.96086862
C        2.82510473       0.70302858       2.29074230       0.49152605       2.01241365      -1.34452287
C        0.62014714       1.06963195       1.70782830      -4.95406269       0.22455464       0.85167674
C        2.45428850       0.24100550       3.49966480      -0.43972009      -1.09949285       3.93839516
C        0.19521912       0.65923267       2.97855641      -0.34621858      -0.05067546       1.92690758
C        1.88791515       1.19882681       1.35587051       1.69159379      -1.63338872       0.94445879
C        1.12838437       0.21366348       3.98439910      -0.95974466       0.50616564      -3.35340803
N        2.13888218       2.32117869      -2.02836463      -4.38704953      -1.22613702       0.41801010
N        0.69486844      -0.35677437       5.21331074       2.90040396      -1.45346828      -1.56527456
C       -0.03176418       0.28699034      -5.18249843       2.45442504      -0.03375768      -0.61341891
C       -1.14340804       2.46527054      -5.10220191      -2.06694337       0.82155107      -2.06413914
C       -1.92984149       0.64908070      -3.70868347       0.83541715      -1.14664486      -0.48110338
C       -0.88636896      -1.41785262       6.55557825      -1.42452756      -1.90370370       0.05708745
C        1.41143026      -1.51411579       5.84681799      -0.04554149      -1.15602355      -1.27377211
C        0.44673110      -1.95973179       6.97772218       0.90508601      -0.27453695       0.67103192
C       -0.65040181       1.35248359      -4.31417654      -2.98457115      -2.10178813      -0.54746435
H        4.46728565       1.57956459       0.05484676      -1.69551529       0.54086564      -1.02403643
H        0.23893010       1.83103564      -0.83405683       1.43297010       0.47944421      -1.05724600
H        3.85197189       0.98728960       2.14855888       0.41736862      -0.63637269      -0.19054958
H       -0.18835477       1.35934838       0.95511751       1.07552350      -0.41140075       1.48383796
H        3.16054704      -0.05370984       4.29760673       0.22444765       0.22300926      -1.01196834
H       -0.86034487       0.79380491       3.30738022       0.92271223      -0.36977838      -0.73602498
H        0.39638909      -0.40230236      -4.48718068       0.43255005      -0.76148661       0.35363642
H       -0.59772382      -0.32479791      -5.88719032      -0.72650984       0.66576764       0.37993008
H        0.82468268       0.67607702      -5.77175424      -0.50688546      -0.04106174       0.40729785
H       -1.55287788       3.27608135      -4.57473037      -0.08304404       1.11648554       1.33357101
H       -2.07793019       2.17158462      -5.67389295       1.36665223      -0.14688632       0.28853887
H       -0.43625049       2.84707739      -5.78533122       0.83703877       0.42827777      -0.80134415
H       -2.57374189       1.33139088      -3.11575768       0.48087268      -0.61730891      -0.33902150
H       -2.48183486       0.16071220      -4.58051631       0.49961331       0.99574684       1.28027185
H       -1.50413463      -0.21615360      -3.13812778      -0.82651923       0.82972782       0.06589100
H       -1.55792759      -1.14667306       7.39269449       0.57956299       0.25182808      -0.87301887
H        1.63592782      -2.34945629       5.11927654      -1.14582408       0.68914551       0.29786063
H        2.45156433      -1.32954357       6.08150674      -0.12208606       0.97891604       0.84432745
H        0.42507948      -3.07089851       7.15040352       0.23861215       1.35067629      -0.30340647
H        0.60661058      -1.49249098       7.95215894       0.78392632       0.07443329      -0.19668649
40
Properties=species:S:1:pos:R:3:MACE_forces:R:3 smiles="[H:27][c:13]1[c:16]([c:14]([c:12]([c:15]([c:17]1[S:8][C:21]([H:31])([H:32])[C:10](=[O:2])[O:6][C:20]([H:28])([H:29])[H:30])[Cl:4])[H:26])[F:3])/[N:5]=[C:11]2/[N:19]3[C:23]([C:25]([C:24]([C:22]([N:18]3[C:9](=[O:1])[S:7]2)([H:33])[H:34])([H:37])[H:38])([H:39])[H:40])([H:35])[H:36]" total_charge=0 config_type=PubChem MACE_energy=-63342.530810114054 pbc="F F F"
O       -4.31903646       0.77174934       2.30987431       0.75405071       0.33059069      -1.47672633
O        4.71504642       0.75046960      -1.78654239       0.13459420       1.65059861       0.21575884
F        0.36534492       2.92224505       2.15924754       0.25817863      -0.28006483      -1.27523905
Cl       1.85494330       5.05364849      -2.26772545      -0.54600329       1.71801246       0.31357789
N        0.47129756       0.34852510       0.82728221      -4.51806486      -1.61512930       1.64548218
O        4.48556091       2.63410880      -0.50966821      -0.00688079      -0.32107356      -1.00604725
S       -2.10734508       1.46725538       0.91247299       0.50334522      -0.84553201       0.19010837
S        2.40760865       2.36628844      -3.37374828      -1.83068883      -1.19127889      -0.88773345
C       -3.25149438       0.45061231       1.79150047      -1.46933132      -1.06152480       2.68744254
C        4.51618578       1.94869640      -1.71927450      -0.43711216      -1.20585351       0.64655481
C       -0.84242938       0.19404539       1.14557769       2.86402897       0.77728555      -0.65698494
C        0.93956431       3.93924215       0.09176688       0.04448677      -1.60465038      -1.75759717
C        1.40137996       1.43259557      -1.04837439      -1.49060840      -0.10255751       1.02653501
C        0.70053045       2.78955009       0.82866251      -0.11568428       0.99904020       0.22730543
C        1.28061547       3.76333811      -1.29078970       0.73754694       1.94204365       2.30428105
C        0.79909848       1.54671445       0.22601866       0.91571628      -0.78059840      -0.83086261
C        1.61031952       2.56096937      -1.80343101       0.49167677      -1.97441361      -0.72451914
N       -2.71847675      -0.76781318       2.14998939       0.10853794      -0.79873215      -1.79550210
N       -1.37266884      -0.96439073       1.65216138       0.52276282       2.17121080      -0.54390272
C        4.81064607       1.91662302       0.71431794       0.55487471      -1.94609968      -0.66023212
C        4.05679323       2.75785425      -2.98536179       2.31933042      -0.69117195       0.21995862
C       -3.49715898      -1.89048860       2.84432223       2.37138545       0.28336774       0.73782634
C       -0.61542008      -2.19303510       1.45231309      -1.72056807       0.22976056       0.87202948
C       -2.85051201      -3.25965688       2.38310077       0.46115890       1.35788687       0.83299800
C       -1.26007268      -3.21991298       2.33018806      -1.07842643      -1.40396729       0.16876195
H        0.86606222       4.86328413       0.58236602      -0.05709230       1.18472049       0.18520067
H        1.51332207       0.42492350      -1.43211481       0.28404161       0.28113623       0.00647509
H        4.09198787       1.10467722       0.98962256       0.46981951       0.34046283      -1.07702748
H        4.67301848       2.55660607       1.56391635       0.52022134       0.97920898      -0.10565620
H        5.85726930       1.46072998       0.62051571      -1.55799194       0.80667931       0.33239255
H        4.11067440       3.82788183      -2.87894604       0.58918549       0.21340741       0.20157320
H        4.65389874       2.37740876      -3.90328691      -0.82607700       0.73908399       1.77073900
H       -4.61415527      -1.79823921       2.83871557       1.32928010       0.17578000      -0.79968553
H       -3.18137930      -1.68096636       3.88277270      -0.49961076      -0.61009126      -0.15227879
H        0.36774983      -2.08190701       1.83723392       0.85182159       0.58865877       0.11075873
H       -0.51294563      -2.48346112       0.41915315      -0.42908670       0.13171943      -0.51278003
H       -3.20898769      -4.06844518       3.03630855       0.32541998       0.39016430      -0.05613229
H       -3.22501133      -3.48110339       1.41893025      -0.31246169      -0.22119646      -1.12581942
H       -0.94608924      -4.16073034       1.80165722      -0.12860591       0.30504406       1.57493588
H       -0.85864637      -3.01280472       3.35636427      -0.38716961      -0.94192733      -0.82596901
27
Properties=species:S:1:pos:R:3:MACE_forces:R:3 smiles="[H:23][C:16]1=[C:14]([C:9](=[O:1])[C:15](=[C:13]([O:6][H:20])[O:7][H:21])[C:10](=[O:2])/[C:17]1=[N:5][N:18]([H:24])[C:11]2=[N:3][N:4]=[C:12]([S:8]2)[C:19]([H:25])([H:26])[H:27])[H:22]" total_charge=0 config_type=PubChem MACE_energy=-35499.04761700978 pbc="F F F"
O       -0.18420455       5.46305229       0.39014631      -1.48386722       4.33857386      -0.12768942
O       -1.20037685       1.11634513      -0.76176975       1.31182933      -0.45587427       0.50591029
N       -0.21333013      -3.00786230       1.10439374       0.93333255       2.71137725       0.65664553
N        0.47735970      -4.01810501       1.57111301       3.12224730      -3.99148338       0.93000436
N        0.98779177       0.43972357       1.15905555      -0.62113161      -1.70680866      -1.45101232
O       -1.98495386       5.08987572      -1.59799407       1.06816135      -3.05067713       0.62728278
O       -2.31370876       2.85121419      -2.15526555       0.74797680       4.53454443       1.07733705
S        2.20647039      -2.18826625       1.79170313      -1.26070034      -0.07330012      -0.27351170
C        0.12574425       4.34735896       0.16261610       1.27766665      -3.40347132       0.70758351
C       -0.38243172       1.94192829      -0.30080233      -2.09073851       0.28022478      -0.81084089
C        0.53475193      -1.93827412       1.22844341       1.74444173       1.19568260       0.57809070
C        1.76732554      -3.85802791       1.93972399      -1.99876748       0.16391185      -1.32548201
C       -1.63286707       3.77315810      -1.37547419      -3.82355502       0.96370649      -3.54292745
C        1.39841690       3.88193490       0.72743922       1.55725158       0.22160676       0.10901743
C       -0.68775842       3.37589933      -0.51883862       2.35945483      -1.48170078       1.25550633
C        1.77708461       2.59242656       0.77836726      -1.00944560       1.05110822       0.75566847
C        0.77334896       1.55342581       0.51769223       0.76893355      -0.13888062       0.74898615
N        0.17205238      -0.63839314       0.96125977      -1.39851055       1.26341700      -0.80680941
C        2.79932644      -4.97247550       2.19467237      -2.01985628      -0.00275354      -2.60861331
H       -1.38971183       5.58633997      -0.98790810      -0.37545199       0.11008101       0.03951687
H       -1.82367895       2.07443847      -1.93594906       0.11085154      -2.15230621       0.35328820
H        2.00462355       4.73832085       1.10822751      -0.31424495      -1.06235941      -0.42410579
H        2.70787504       2.29712679       1.23610564       0.01254657      -0.14441404      -0.05899965
H       -0.70350847      -0.53132246       0.42333672       0.78018391       0.21635204       0.27480314
H        2.17167451      -5.88811442       2.27768125       0.91518871       0.47969513       0.11955341
H        3.52680256      -5.05046174       1.32237031      -1.16742317       0.04099195       0.93601393
H        3.37366631      -4.74348066       3.02743866       0.85362635       0.09275611       1.75478382
17
Properties=species:S:1:pos:R:3:MACE_forces:R:3 smiles="[H:12][c:6]1[c:7]([c:9]([c:11]([c:10]([c:8]1[H:14])[H:16])[H:17])[H:15])[H:13].[H:3][C:2]([H:4])([H:5])[F:1]" total_charge=0 config_type="DES370K Dimers" MACE_energy=-10129.057899444033 pbc="F F F"
F        3.15809011      -0.64795005      -1.50769996       0.01592913      -0.02137922      -0.02395761
C        2.53334999       0.17393000      -0.58995002      -0.45188758       0.59533766       0.66528720
H        1.77919996       0.80399001      -1.09082997       0.35507872      -0.32857051       0.09298467
H        3.27109003       0.83099997      -0.09944000      -0.21556458      -0.33931062      -0.28560622
H        2.02983999      -0.42923000       0.18417999       0.25949775       0.14273315      -0.39384469
C       -0.10537000       1.40632009       2.11418008      -0.13813031      -0.15495234       0.02514988
C       -0.29824001       2.36852002       1.12219000      -0.16756065      -0.00938391      -0.12506514
C        1.06039000       1.41872001       2.88094997       0.03383894      -0.15319056       0.13821561
C        0.67464000       3.34311986       0.89697004      -0.02321186       0.13467886      -0.15812651
C        2.03326988       2.39332008       2.65573001       0.18129560      -0.00553416       0.10442007
C        1.84039998       3.35552001       1.66373992       0.15241160       0.13695914      -0.04229425
H       -0.87091994       0.63942003       2.29139996       0.41338155       0.41483633      -0.09527357
H       -1.21555996       2.35877013       0.51883000       0.49541555       0.00568255       0.32651441
H        1.21215999       0.66157997       3.66153002      -0.08229892       0.40946874      -0.42124128
H        0.52288002       4.10026026       0.11639000       0.08164499      -0.40857130       0.42209779
H        2.95058989       2.40306997       3.25907993      -0.49588695      -0.00481697      -0.32549068
H        2.60594988       4.12241983       1.48651004      -0.41395298      -0.41398683       0.09623031
23
Properties=species:S:1:pos:R:3:MACE_forces:R:3 smiles="[H:19][C:11]([H:20])([H:21])[N:9]([C:8](=[N:3][H:14])[N:10]([H:18])[P:13](=[O:2])([O:5][H:16])[O:6][H:17])[C:12]([H:22])([H:23])[C:7](=[O:1])[O:4][H:15]" total_charge=0 config_type=PubChem MACE_energy=-28320.95667932073 pbc="F F F"
O       -2.71141527       0.08820104       2.21196666      -3.79730874       1.46130286       3.41728009
O        0.62831669      -1.27708444      -1.03337285       1.60013305       1.55133427       0.66165552
N        1.63637366       2.55927660       0.06025433      -2.36517236       0.12520605       1.34346654
O       -2.12305114      -0.90593359       0.41559929       1.43591584      -0.60059697      -1.85126529
O        1.88666012       0.49645853      -2.23799441       1.09175336       1.42773457      -1.36207793
O        3.19361736      -1.50753877      -1.12207577      -1.79916891       3.29859570       0.73385157
C       -1.84855196      -0.29268590       1.55469277       3.91664945       0.25808949      -2.04013048
C        1.33624961       1.41996744       0.60628186      -2.00527771       6.82539282       0.66420092
N        0.24897766       1.30777212       1.48140182      -0.69259085      -2.41510398       0.33290531
N        2.17170825       0.43732822       0.34281864       2.57744087      -4.23740688       0.73004163
C       -0.57469866       2.47629788       1.83463004       1.11658630       0.39242926       0.20788503
C       -0.33850513      -0.03011022       1.98471667      -0.45996559       1.03616845      -4.50452992
P        1.87207474      -0.40992508      -1.00646994      -2.19503938      -7.09660703      -0.55453915
H        2.54611161       2.68518426      -0.34630058       0.14154622      -0.85525653      -0.14321767
H       -1.34191880      -0.99388574      -0.19802711      -0.61388211      -0.03892468       0.89722104
H        1.99390580      -0.11296294      -2.98114035      -0.19388311       0.39217950      -0.36420106
H        3.82850697      -0.86112557      -0.77043269       0.94867580      -0.81341699      -0.23448856
H        2.28689971      -0.22459505       1.10037967       0.10830524      -0.19152366       0.17417234
H       -1.45018516       2.16976406       2.40951207       0.29861871      -0.18953746      -0.19430385
H       -0.89850996       2.95943286       0.91396241       0.08831462       0.29848543       0.24735754
H        0.04637416       3.14771678       2.47878971      -0.61779404      -0.24163168      -0.78689699
H       -0.36058191      -0.12882040       3.00429251       0.44379382       0.09015008       2.44385285
H        0.14271738      -0.83165620       1.46759029       0.97234953      -0.47706261       0.18176052
25
Properties=species:S:1:pos:R:3:MACE_forces:R:3 smiles="[H:21][c:10]1[c:12]([c:15]([c:13]([c:11]([c:14]1[O:3][H:18])[H:22])[H:24])[S:5][C:9]2=[C:8]([C:6](=[O:1])[N:17]([C:7](=[O:2])[N:16]2[H:25])[O:4][H:19])[H:20])[H:23]" total_charge=0 config_type=PubChem MACE_energy=-32518.71392006323 pbc="F F F"
O       -1.76303647       0.85098907       3.05382945      -0.27816380       0.53265407      -0.46440635
O       -1.31740460       4.96060850       1.17112007       0.16773386      -1.48033932       0.39623836
O        3.51930358      -3.35079191       0.39469395      -0.89855856      -0.08398562      -0.36380990
O       -2.38455675       3.46330359       3.27790954       0.54357502       1.74954355      -2.01306070
S        0.38743854       1.24278011      -1.55876444      -0.27595235       0.83169373      -0.47919375
C       -1.47860477       1.56230452       2.09306707       0.10190067      -1.07374550       1.75564183
C       -1.21444354       3.72884275       1.14310225      -1.30668546       4.79140626       0.80567242
C       -0.85828433       1.03114089       0.89800178       0.32099661       1.18877541      -1.81113131
C       -0.45623527       1.83227398      -0.14499990      -0.59977188      -0.19434732       2.09873363
C        1.71202781      -2.49782560      -0.83897421      -0.69713287       0.68810002      -0.69662252
C        3.10221316      -0.97476099       0.39039924      -0.52104985       0.48337807       0.26749832
C        0.99363386      -1.38942657      -1.34614847      -0.39809944      -0.78825605       0.73579667
C        2.34360411       0.11194562      -0.04565034       0.76446921      -0.39427237       0.67997917
C        2.77759030      -2.27165363       0.01941993       0.06959045       0.03218241      -0.61203856
C        1.28828558      -0.10241304      -0.89212725      -0.21926726      -0.69593372      -0.75837517
N       -0.68504963       3.20577480      -0.01609925       0.41573807      -2.43778165       0.15809653
N       -1.65910981       2.94376351       2.19595184       0.38251639      -1.83649437      -1.02120060
H        4.25237610      -3.04685972       0.90124931       0.82172902       0.19947053       0.60823212
H       -2.47476337       2.81398799       3.96466758       0.54593419      -1.45846584       0.03913465
H       -0.73881195      -0.02586595       0.78438362      -0.06364750      -0.23390579       0.36889642
H        1.47579374      -3.52717159      -1.09818754      -0.02877206       0.33526922      -0.10577874
H        3.88425686      -0.82147572       1.10521623       0.44304678       0.14352907       0.16524406
H        0.10038542      -1.49090884      -1.98477981       0.77047670      -0.25643237       0.29464625
H        2.55075433       1.11777111       0.29838026       0.15526946      -0.15195317      -0.01567780
H       -0.12793235       3.86309745      -0.53623054      -0.21587538       0.10991072      -0.03251505
19
Properties=species:S:1:pos:R:3:MACE_forces:R:3 smiles="[H:18][C:11]1([c:8]2[c:7]([n:2][c:5]([n:1][c:6]2[O:3][H:12])[C:9]([H:13])([H:14])[H:15])[C:10]([S:4]1)([H:16])[H:17])[H:19]" total_charge=0 config_type=PubChem MACE_energy=-23261.28967147938 pbc="F F F"
N        1.67720308       0.78268733      -0.88113568      -1.57240420      -1.15623705      -0.86627715
N       -0.52726815       0.27019220      -0.18537781      -0.92910347      -1.53635810      -2.72657835
O        3.15073969       1.26524033       0.64139233       2.78214386       1.70005804       0.18687351
S       -0.25391094       0.08760276       3.77910187      -0.91937160       0.05519919      -1.62019103
C        0.45980441       0.31607201      -1.13985942      -0.51805381       0.96372313       0.94281906
C        1.93393733       0.91561782       0.40248058      -0.53355641      -0.17854336       0.21318199
C       -0.24327490       0.38136026       1.06899776       0.33518779       1.76895159       1.17357559
C        1.06805178       0.73216613       1.41618379      -3.04100724      -1.20341122       3.49201725
C        0.14217793      -0.18477402      -2.52188823       1.15540507       0.89447020      -0.49747621
C       -1.31053803       0.42525086       2.25524952       1.41423384       0.29367240      -0.68080625
C        1.15501168       0.88090636       2.96116163       2.05189334      -0.78200234      -0.62130593
H        3.36177828       1.63796236      -0.23216060       1.09769851      -0.17531088       0.35346017
H       -0.86005352      -0.48573039      -2.43161676      -1.16713324      -1.00991259      -0.26843992
H        0.11939024       0.63275611      -3.32340500       0.62069883      -1.15956567       1.16701808
H        0.87125449      -1.03060148      -2.74285457      -1.14384371       1.20049111      -0.07846485
H       -1.73406217       1.43668511       2.39068093       0.39888087      -0.35785363      -0.41742822
H       -2.15293906      -0.22973446       2.06510904       0.22618800      -0.39038032       0.25610537
H        2.03458192       0.26992180       3.33776977      -0.73146994       1.44107178      -0.26954249
H        1.16248318       1.95078589       3.19453814       0.47361352      -0.36806230       0.26145938
23
Properties=species:S:1:pos:R:3:MACE_forces:R:3 smiles="[H:10][C:4]([H:11])([H:12])[C:8]([H:22])([C:5]([H:13])([H:14])[H:15])[N:2]=[C:1]=[N:3][C:9]([H:23])([C:6]([H:16])([H:17])[H:18])[C:7]([H:19])([H:20])[H:21]" total_charge=0 config_type=PubChem MACE_energy=-10473.002907558046 pbc="F F F"
C        0.64703194       0.50411505       0.54484157      -1.65672628      -2.06772651       1.53961287
N       -0.04952262      -0.00594995       1.39987971       0.40331033       0.45799375      -0.77651567
N        1.33447757       0.91509106      -0.33172259       1.50054385       1.48339725      -0.98266748
C       -0.04069362      -2.27672670       2.15193465       0.14891035      -1.32019585      -0.01849255
C       -2.04090641      -1.30323027       1.12061401      -0.33734689      -0.58724137       1.43492973
C        3.18962958       2.49980261      -0.76330898      -0.74061115      -0.05077462       0.06810365
C        0.82874914       3.30061891      -0.44972215      -0.37894589      -0.25579324       0.62549745
C       -0.51227448      -1.34774921       1.06598457      -1.67431966      -1.06922352       0.95072242
C        1.86052753       2.23416271      -0.00599942       1.15251111       2.49010589      -0.90980828
H       -0.50864980      -3.28198574       2.02101590       0.22756127       0.73251833       0.19004605
H        1.03814985      -2.44565771       2.11097886      -0.07789626       0.22013709       0.13444533
H       -0.32367591      -1.85800049       3.11978676       0.11810295      -0.18424575      -0.07824116
H       -2.51449702      -2.29863045       1.03276213       0.43771376       0.34277432      -0.20118214
H       -2.34504602      -0.93211541       2.13768246       0.25878131      -0.10607049      -1.03606412
H       -2.43092106      -0.66404793       0.36163340      -0.37273024       0.51628077      -0.44123021
H        3.64578702       3.44417193      -0.46719227      -0.14388057      -0.01709997       0.20813905
H        3.00660159       2.57724001      -1.84482262       0.03725559      -0.29363344       0.33259303
H        3.88425447       1.70230426      -0.54796944       0.26647783      -0.19100883      -0.13741632
H       -0.10983012       3.20015432       0.12146222       0.33261185      -0.05894275      -0.28377092
H        0.59334931       3.26959326      -1.51151417       0.08861561      -0.42796969      -0.01330313
H        1.18981053       4.30047157      -0.27096901       0.33102546       0.33028383       0.26768716
H       -0.22917829      -1.73989484       0.08419879       0.33281756       0.46372130       0.08417849
H        2.05790331       2.37733914       1.09152140      -0.25378190      -0.40728653      -0.95726323
26
Properties=species:S:1:pos:R:3:MACE_forces:R:3 smiles="[H:21][C:6]#[C:7][c:16]1[c:14]([c:18]2[c:17]([c:15]([c:13]1[H:24])[Cl:5])[O:9][C:20]([C:12](=[C:11]2[H:23])[C:10](=[O:1])[O:8][H:22])([H:26])[C:19]([F:2])([F:3])[F:4])[H:25]" total_charge=0 config_type=PubChem MACE_energy=-40410.24478828671 pbc="F F F"
O       -3.40681813      -0.97452829       1.07035943       0.09412453       0.66883303      -0.59989329
F        0.35696481      -0.39383022      -3.08176992       0.15903609       0.09480044      -0.02330535
F        0.58672740      -1.49350021      -1.22326598      -0.22218127      -0.69154223      -0.65638851
F       -1.34131763      -1.60139272      -2.45530102       1.76607869       0.92264938       1.21970430
Cl       2.74813368       2.99809124      -1.32391796      -1.04391409      -1.02715953       1.21448864
C        4.79657127       1.23717501       4.27754142      -2.71254444      -0.50016940      -3.30893724
C        3.89062788       1.13558050       3.41116812       2.98341857       0.36791907       2.38815896
O       -3.54912374       0.14881887      -0.86433146      -1.80590290      -0.19243344      -0.30635280
O        0.26891999       1.30467363      -1.01210532      -0.30933329       0.46444789       0.94799815
C       -2.90231321      -0.30770628       0.19089346       1.81932870      -1.07108382       1.80484968
C       -0.63623736       0.16650041       1.30195566      -3.72953972      -1.95539024      -1.03646548
C       -1.42372845       0.05860748       0.17599230       1.03653531      -0.13153188       1.52372337
C        3.09479572       1.96310629       1.15883019       0.90006831      -0.67968057      -0.60978817
C        1.58776035       0.66042981       2.42924645       0.43793050       0.10332768      -2.30479460
C        2.14641025       2.05739548       0.11142095       2.81414175       0.88629824       0.57024921
C        2.90301206       1.14776888       2.31459966      -1.44929315       1.58170442      -0.17681692
C        0.95684041       1.35835763       0.18167590       1.31998830       0.90887756      -2.67739519
C        0.64243279       0.70384853       1.33642384       2.46051757       0.50238082       1.18357400
C       -0.26864473      -0.80232785      -1.99340675      -1.28861617      -0.26633555       0.82686281
C       -0.79589615       0.39138614      -1.12195907       0.44730082      -1.19516766      -0.37433123
H        5.70674612       1.27561130       4.89310934      -1.23670605      -0.04430525      -0.52638284
H       -4.48409793      -0.16767023      -0.74457822       1.08848775       0.45274752      -0.32245355
H       -1.03060005      -0.23760722       2.19516470      -0.62930079      -0.07321019       0.94933518
H        4.12054779       2.34605529       0.98169269      -1.06409829       0.07634654       0.14938055
H        1.38106170       0.08047330       3.25876262      -0.83822424      -0.93500203       1.59659260
H       -1.59016702       0.70329048      -1.70959375      -0.99730248       1.73267920      -1.45161226
18
Properties=species:S:1:pos:R:3:MACE_forces:R:3 smiles="[H:7][C:2]([H:8])([H:9])[C:4]([H:13])([H:14])[C:5]([H:15])([C:3]([H:10])([H:11])[H:12])[O:1][H:6].[H:17][O:16][H:18]" total_charge=0 config_type="DES370K Dimers" MACE_energy=-8443.29989175821 pbc="F F F"
O        0.57343000       0.52767002      -2.77916002      -1.05593291       2.10880510       0.03281142
C        0.00000000       0.00000000       0.00000000       0.41347766       0.35612742      -0.28935974
C        0.98778999      -1.58104002      -2.45386004       0.57722913      -2.03115142      -0.57773248
C       -0.86171001      -0.61699998      -1.10416996      -1.24087457       0.30437768       0.23167205
C       -0.17456001      -0.64781004      -2.45626998       1.38389439      -0.04325835      -0.05801392
H        0.10616000       1.36497008      -2.57667995       0.13991376      -0.97134204      -0.27454818
H        0.41172999       0.89460003      -0.49677000       0.17607127      -0.23781525       0.80338360
H        0.83805001      -0.64189005       0.31978997      -0.40491342       0.29186545      -0.19306995
H       -0.55906004       0.32060000       0.89514005       0.09666802      -0.30349088      -0.51421438
H        1.75502002      -1.38563013      -1.68587995      -0.57579710       0.14551723      -0.32738119
H        1.44935000      -1.46740008      -3.44918012       0.07026355      -0.30438183       0.52776758
H        0.63799000      -2.62141990      -2.34498000       0.26466155       0.23369593      -0.03704236
H       -1.21466005      -1.63629997      -0.85538000       0.13196544       0.52803279      -0.17635041
H       -1.75291002       0.03063000      -1.21271002       0.15257812      -0.41234429       0.15046444
H       -0.81905001      -0.93326002      -3.31244993      -0.13442580       0.32923048       0.69684943
O       -1.39300000      -5.38562011      -4.84924984      -0.06653224       0.06704430      -1.38950011
H       -1.12845003      -4.63896990      -5.43299961      -0.33330436      -0.94016065       0.67576246
H       -1.71588003      -6.08065032      -5.46644974       0.40505750       0.87924832       0.71850173
17
Properties=species:S:1:pos:R:3:MACE_forces:R:3 smiles="[H:6][C:4]([H:7])([H:8])[C:3](=[O:1])[O:2][H:5].[H:13][C:10]([H:14])([H:15])[C:11]([H:16])([H:17])[O:9][H:12]" total_charge=0 config_type="DES370K Dimers" MACE_energy=-10459.945085816873 pbc="F F F"
O        0.81380004       1.73905003       2.37614012       0.41350108       0.23544642      -0.18044443
O        2.06448007       3.25008011       1.26319003      -1.34906577      -0.31091447       0.09456437
C        1.90129995       2.20148993       2.11226988      -0.11574829       0.34026776      -0.28945927
C        3.22000003       1.72855008       2.64685011       0.40550114      -0.51564215       0.47510934
H        1.14587998       3.49164986       0.96345001       0.96090391      -0.03678773       0.12427663
H        3.07042980       0.87834001       3.33341980      -0.01606521       0.47150476      -0.39073563
H        3.72489976       2.54038000       3.19695997      -0.23040644      -0.30477657      -0.37183470
H        3.87472987       1.40294004       1.82106995      -0.30805484       0.27970627       0.33152206
O       -0.99220001       3.78404999       0.41411000       0.22445109      -0.87695628       0.61654895
C       -0.74836999       2.15646005      -1.40411007       0.19977898      -0.16515940      -0.10494295
C       -1.56443000       3.28281998      -0.79499996      -0.27031538       0.38391208      -0.34519788
H       -0.95977002       3.04362011       1.05528998      -0.09729281       0.60772348      -0.44697775
H        0.28407002       2.49498987      -1.59407008      -0.42028592      -0.17592979       0.06458159
H       -1.19456994       1.83456004      -2.36009001       0.19451477       0.08798857       0.39681859
H       -0.71471995       1.29016995      -0.72219997       0.00507200       0.30420998      -0.29145486
H       -1.59429002       4.15254020      -1.47920000      -0.02753570      -0.49289990       0.35122981
H       -2.60740995       2.95438003      -0.62242997       0.43104738       0.16830697      -0.03360387
45
Properties=species:S:1:pos:R:3:MACE_forces:R:3 smiles="[H:33][c:14]1[c:13]([c:16]([c:15]([c:18]2[c:17]1[C:7](=[C:10]([N:19]3[C:9](=[C:5]([C:6](=[C:11]3[C:8]2=[C:12]4[C:23]([C:25]([N:20]([C:26]([C:24]4([H:40])[H:41])([H:44])[H:45])[C:22]([H:35])([H:36])[H:37])([H:42])[H:43])([H:38])[H:39])[H:28])[H:27])[H:30])[H:31])[H:29])[H:34])[S:4][C:21]([F:1])([F:2])[F:3])[H:32]" total_charge=0 config_type=PubChem MACE_energy=-43037.61925730858 pbc="F F F"
F        0.46551457      -3.79208276       3.40249159      -0.91811986      -1.17368055      -0.01542364
F       -0.25435243      -5.21275232       1.89284518       0.10516594       0.02547912       0.57235517
F       -1.39798031      -5.01759717       3.74111130       0.87735627       0.91001452      -0.61907361
S       -1.62126873      -2.94252059       2.05800702       0.14437302      -0.50272610       0.00375775
C        4.72795631       1.77521600       0.09731638      -0.83209298       0.49028362       1.61795503
C        3.40052130       1.81972995       0.67337922       0.22938142      -0.01828242      -0.44663305
C        1.89177384      -0.82942293      -2.46508072       1.59015584       2.00872482       0.64839332
C        1.13322105       0.94485398      -0.14903126      -2.22713456       1.25786879       0.09089449
C        4.63984062       1.16872307      -1.10072622       1.65928835       0.29687996      -0.34104700
C        2.89793684       0.11530765      -2.44897220      -1.69618886      -1.64632027      -0.61550958
C        2.56338622       1.24285402      -0.26740859       0.31570770       0.25949875       1.47105602
C        0.14677634       1.90849127       0.04038259       1.39282471      -2.37391789      -0.80838915
C       -0.19632599      -3.14381978      -0.37782393       0.41743753       0.76453533      -0.10924045
C        0.60597828      -2.61494110      -1.38159654      -0.26580287       1.26908449       0.70264113
C        0.00599184      -1.07377634       0.80426796      -0.54892415      -0.13655441       0.47252064
C       -0.53390405      -2.36753175       0.74080805       0.97482041       0.29290877      -0.00659987
C        1.08063855      -1.27623460      -1.32147882       0.01164789      -1.18083166      -0.56300666
C        0.75679840      -0.49499951      -0.22154156      -0.10318281       0.00341151      -0.00490462
N        3.34127237       0.82810311      -1.33149574      -0.65463876      -0.38880931      -0.66523781
N       -1.47897742       3.30262472       1.84490564      -1.18796724       1.28403170       0.17228073
C       -0.65135524      -4.34133766       2.83443477       0.09884707       1.22112216      -0.70592576
C       -2.03490636       3.80357840       3.13206722       1.30555527      -0.51555024      -0.31842623
C        0.46842399       3.34234001       0.28844122      -1.41905092       0.36454126      -0.41923813
C       -1.34926150       1.59940483       0.08929273       0.09185191       0.10327133       0.11857116
C       -0.05850682       3.63840963       1.71505513      -0.36777468      -0.20764602      -0.59938835
C       -1.89145205       1.95562794       1.46946706       1.28986156       0.43080532       0.36717350
H        5.61456396       2.12249532       0.59590565       0.12484254       0.01715052      -0.18526596
H        3.10986998       2.21818819       1.66189840       0.18374609      -0.36182951      -0.94465272
H        1.70794358      -1.30142639      -3.41318605      -0.04500675      -0.08683261      -0.15929523
H        5.50990393       1.00610094      -1.74261663      -0.95930993      -0.28385429      -0.15267098
H        3.40986468       0.31672515      -3.39521930      -0.00087839       0.00038934       0.58441244
H       -0.51132069      -4.14805982      -0.43647353      -0.45829440      -0.86737751      -0.13368313
H        0.84365221      -3.13918922      -2.28322313       0.02404762      -0.59267644      -0.09723702
H       -0.19871644      -0.44598333       1.66367700      -0.03312132      -0.21133161      -0.04051421
H       -3.13259957       3.78792383       3.18850495       0.46033644      -0.17131781      -0.25204786
H       -1.67501566       4.84196045       3.28726675      -0.36299243      -0.62415934      -0.13120763
H       -1.58913395       3.17950584       3.94294979      -0.54049532       0.39498032      -0.03431245
H        1.51747443       3.52077844       0.15118866       0.38219589       0.19440485       0.30848038
H       -0.07739458       3.97157647      -0.46467064       0.31468417      -0.43437794       0.76698476
H       -1.85916398       2.18509938      -0.69177184       0.22235004       0.07857829       0.36435854
H       -1.67157219       0.56988467      -0.06244556       0.65508816      -0.03218507      -0.30653349
H        0.06474107       4.68664791       1.97355368      -0.06132574       0.07124764      -0.08510232
H        0.54658465       3.06606104       2.41039183       0.33558338      -0.30778223       0.38592205
H       -1.49894259       1.22868766       2.19940807       0.05613516      -0.10599194      -0.01267535
H       -2.95550296       1.80774857       1.46871938      -0.58098238       0.48482277       0.12548516
47
Properties=species:S:1:pos:R:3:MACE_forces:R:3 smiles="[H:25][C:7]1=[C:8]2[C:9](=[C:10]3[C@@:23]4([C@@:22]([C:18]([C:15]([C:14]3([O:4]2)[O:3][H:24])([H:34])[H:35])([H:40])[H:41])([C:19]([C:16]([C:17]([C:21]4([H:45])[H:46])([H:38])[H:39])([H:36])[H:37])([C:12]([H:28])([H:29])[H:30])[C:13]([H:31])([H:32])[H:33])[H:47])[C:20]([H:42])([H:43])[H:44])[C:11]([C:6](=[O:2])[C:5]1=[O:1])([H:26])[H:27]" total_charge=0 config_type=PubChem MACE_energy=-28301.053402977574 pbc="F F F"
O        6.49019910       1.66063347      -1.76050923       0.41574441      -0.89043265       0.35141674
O        6.00034477      -0.77114210      -0.37143497      -2.30833424       3.05936450      -1.19853212
O        0.87447795       3.35284473       0.94660183      -0.51458427       0.56083960       0.03340264
O        2.18518617       3.17245056      -0.86243878       0.07321258      -1.32024544      -0.26995958
C        5.43710329       1.44134356      -1.19307265       0.49049758       1.26825469      -1.31933085
C        5.12576868       0.12290582      -0.54187129       2.53217828      -4.28419085       2.37579299
C        4.43829276       2.47540953      -1.24933062      -1.28329639       0.46586171       0.27898285
C        3.20809653       2.27348461      -0.71516392       1.28990034       0.07039096      -0.82931767
C        2.82512905       1.03381982      -0.05476675      -2.33724761       0.15411463       0.67950770
C        1.47502854       1.19371208       0.18357911       2.30462793      -1.22227860      -0.74629851
C        3.80462911      -0.15876482       0.17579218      -1.18852371       2.20470184      -1.35777515
C       -3.02339337       0.87784114       2.15422978      -0.10561847      -0.00772804       0.21878921
C       -2.65994213      -1.03144870       0.66760188       0.49689835      -0.13865238       0.04425134
C        1.02928814       2.58718683      -0.23178307       0.09031133      -0.62552559       1.03670899
C       -0.27062795       2.47515228      -1.05187080       0.27292639       0.21437691       0.07115674
C       -1.30061672      -0.77489302       2.81347086      -0.03677008       0.76353464       0.35417840
C       -0.03568838      -1.52472160       2.51489140       0.39420713       0.14049082      -1.33450967
C       -1.38703642       1.70259525      -0.26497648       0.65479710       0.59392808       0.96031206
C       -1.93457220      -0.05235324       1.61022832       0.36236074       0.50408601      -0.36577794
C        0.37217786      -0.84057388      -0.63996551       0.94926952      -0.88569592       0.22693021
C        1.01180106      -0.63574336       1.83370604      -0.21963902       0.43414991       0.48550842
C       -0.82926629       0.83941107       0.93884738      -0.47173149       0.11289651      -0.42880723
C        0.50122490       0.11147704       0.57603440      -0.71289013       0.23540059       0.29402215
H        1.73006513       3.78220298       1.10574671      -0.50868429      -0.27627310      -0.07071399
H        4.68519737       3.35710671      -1.84055827      -0.09141843      -0.26920054       0.35110547
H        4.02057864      -0.27058539       1.23079928       0.06317993      -0.06152584       0.08941544
H        3.35101940      -1.08290265      -0.19873557       0.32160044       0.19475031       0.11755127
H       -2.57260415       1.71078708       2.70019342      -0.13145661       0.01654002      -0.14670477
H       -3.66877601       0.34298729       2.86783030       0.13582925       0.09539781      -0.32489884
H       -3.64349792       1.24963530       1.33197631       0.08043235       0.08662665       0.32114518
H       -3.37485788      -1.57079599       1.27968302      -0.20659224      -0.17745760      -0.05928021
H       -3.21254609      -0.51581535      -0.11971001       0.08096608       0.01043727       0.14392683
H       -2.00717232      -1.76303551       0.18580624      -0.10750117       0.14538153       0.18379882
H       -0.60376272       3.48408725      -1.36686132       0.15443710      -0.66495285       0.15714075
H       -0.04968069       1.86785652      -1.93335602       0.26326948       0.40198291      -0.01255016
H       -1.04027734      -0.00509737       3.59313633      -0.52394737      -0.65280659      -0.57999793
H       -2.05140493      -1.45912776       3.19870116      -0.06046556       0.05282118       0.37836129
H       -0.20605895      -2.36052654       1.85307934      -0.38788186      -0.35136918      -0.26555376
H        0.37583580      -1.96625803       3.39668491       0.30831248      -0.10893542       0.68595325
H       -2.07266590       2.49113014       0.11061698       0.23441248      -0.88789617      -0.08909592
H       -1.91511915       1.03804209      -0.95259164      -0.00481429       0.32742790       0.10094642
H       -0.22889684      -0.42769185      -1.42130993      -0.25641176       0.40472692      -0.45121230
H        1.36256745      -1.10448716      -1.06894360      -0.55699710       0.43461197       0.27471421
H       -0.06706188      -1.81058714      -0.40985129      -0.09568023       0.19118132       0.34417040
H        1.83966281      -1.23763440       1.52300265       0.56084946      -0.38623910       0.00510236
H        1.38843300       0.07010688       2.59778287      -0.13895525      -0.04672714      -0.56577299
H       -0.50525258       1.52130463       1.73040774      -0.28077918       0.11385579      -0.14820256
11
Properties=species:S:1:pos:R:3:MACE_forces:R:3 smiles="[H:5][C:3]([H:6])([H:7])[C:4]([H:8])([Cl:1])[Cl:2].[H:10][O:9][H:11]" total_charge=0 config_type="DES370K Dimers" MACE_energy=-29270.644316553404 pbc="F F F"
Cl       0.82740998       2.47815990      -0.61476999      -0.26373189       1.86302771      -1.55532411
Cl       0.21913000       1.66624999       2.08838987       0.03380884       0.24198061       0.23126651
C        0.00000000       0.00000000       0.00000000      -0.04002086       0.26109606      -0.09486234
C        0.85027998       1.20530999       0.48453000       0.59943575      -2.74725526       1.10371163
H       -1.02165997       0.38881001      -0.14716001       0.40829623      -0.30887793       0.02972382
H       -0.03714000      -0.81446999       0.74288005       0.16316867       0.53913356      -0.24905001
H        0.36052000      -0.41299000      -0.95712000      -0.02048822       0.35278559       0.42096885
H        1.92579997       0.97398996       0.62458002      -0.88634785      -0.18648341       0.10909255
O       -1.49460005       6.03866004      -1.28575992       0.68101879      -0.23665177       1.18889505
H       -1.86231005       6.03392028      -0.37305999       0.50068827      -0.01127119      -1.10211923
H       -0.53943002       5.83282995      -1.16942000      -1.17582773       0.23251604      -0.08230272
33
Properties=species:S:1:pos:R:3:MACE_forces:R:3 smiles="[H:27][C:12]1([C:11]([S:8][C:13]([N:9]1[N:2]=[O:1])([H:29])[C:15]([H:31])([C:17]([H:33])([C:16]([H:32])([C:14]([H:30])([C:10]([H:23])([H:24])[O:3][H:18])[O:4][H:19])[O:6][H:21])[O:7][H:22])[O:5][H:20])([H:25])[H:26])[H:28]" total_charge=0 config_type=PubChem MACE_energy=-34667.50056704419 pbc="F F F"
O       -0.08699445       0.27487855      -4.31728313      -0.93895979       0.13204524       2.16754713
N       -0.22916553       0.36061997      -3.09452531       2.47427061      -1.49884149      -1.84587156
O       -0.84918247       1.69073751       5.41294529       0.07191224       2.21642620      -2.60476969
O       -1.76752947       1.61974742       2.78403022       1.58438247      -0.16857001      -1.13383520
O        1.22918143       2.27291419      -1.55442998      -0.08013454      -3.11776725       1.11713780
O        2.03414025       1.33541002       2.45340528      -0.21498943      -0.33284987       0.58344321
O        0.56055766       3.16160824       0.94313430       0.30219766      -0.92833139      -1.54500014
S        1.74968936      -1.63002274      -0.35999677       0.81052257      -0.07127806       0.27820449
N        0.78811698      -0.35128561      -2.43762634      -0.14060875       0.35706074      -0.54641859
C       -0.17776374       0.95586999       4.41890361       0.89536301      -0.48640564       0.87178692
C        1.22249498      -2.57190607      -1.82650373       1.34515183       0.62421429      -0.12562944
C        1.46011843      -1.59760926      -3.01493928      -0.89224115      -0.75137877       2.32253630
C        0.84121953      -0.20541606      -0.92852686      -3.21849163      -0.17159936      -1.25603404
C       -0.34991351       1.68384959       3.16346910      -0.40899351       1.00047459       0.36763540
C        1.18066945       1.17720248      -0.43492136       2.18128278       2.70708753      -0.44018198
C        0.65338787       1.13646950       2.13861289      -0.42305605      -0.51937677      -1.95389448
C        0.33209372       1.74760964       0.74868263      -1.88156714       0.15834119      -0.65579052
H       -0.83159421       1.25549843       6.19873049       0.08137715      -1.86910432       3.32292803
H       -2.35672567       1.69023564       3.53804114       0.64046696       0.12434937       0.35109859
H        1.47704097       1.72821738      -2.34446023      -0.28779157       1.03004620       0.98193206
H        2.42237713       2.21045031       2.29895725      -1.12719684      -0.12657821      -0.16025355
H        0.65212215       3.48127129       0.02354940      -0.02420048       0.17474626       0.73690790
H       -0.67265496       0.04995223       4.28895237      -0.94651314      -1.97430392      -0.17363577
H        0.87581744       0.67007556       4.60709526      -0.33341342       0.80228255       0.26978588
H        0.17347606      -2.67957685      -1.69581101      -0.77102947      -0.92736815      -0.10753431
H        1.86124374      -3.48205516      -1.87229369      -0.90767781       0.50963649      -0.02744422
H        1.05577995      -2.06079052      -3.90492866      -0.67850636       0.86342360      -0.20901499
H        2.52374532      -1.60720370      -3.12030814       0.63174293       1.15847219      -0.27478075
H       -0.19447712      -0.30208419      -0.55137477       0.14908136      -0.50409287      -0.53674085
H       -0.06158713       2.70063689       3.41020205      -0.16669402       0.43469847      -0.47913019
H        2.20540060       1.11347868      -0.08210573       0.22560100       0.33707880       0.07471884
H        0.54186205       0.02363839       2.10186102       0.06482699       0.80903187      -0.07438874
H       -0.80009887       1.61042621       0.47231070       1.98388555       0.00843049       0.70468644
47
Properties=species:S:1:pos:R:3:MACE_forces:R:3 smiles="[H:29][c:10]1[c:16]2[c:14]([c:12]([c:8]([c:11]1[Cl:1])[H:27])[Cl:2])[N:17]([C:23]([C:22]2([H:39])[H:40])([H:41])[H:42])[c:6]3[c:13]4[c:15]([c:9]([c:7]([n:5]3)[C:19]([H:30])([H:31])[H:32])[H:28])[N:18]([N:4]=[N:3]4)[C:26]([H:47])([C:24]([H:43])([H:44])[C:20]([H:33])([H:34])[H:35])[C:25]([H:45])([H:46])[C:21]([H:36])([H:37])[H:38]" total_charge=0 config_type=PubChem MACE_energy=-52559.348191320474 pbc="F F F"
Cl      -2.57488916       0.79602703       6.57047035      -0.73220892       0.10800411       0.56467237
Cl       1.75288941       1.04850878       3.62356808       0.54118862      -0.14593391       0.01259353
N       -0.18068138       0.00957909       1.48907508      -2.68993145       1.47621008       0.98494836
N       -0.26142500      -1.08170936       0.85235223       2.46520559       0.38932031      -0.06061988
N        1.32667401       3.14290263      -0.11717669      -1.21120000      -2.35038471       2.25167220
C        0.67664381       2.41792741       0.91797098       0.17882809       3.15823217      -2.23195642
C        1.87108984       2.42519452      -1.12415049      -0.46302736      -1.00495699       1.18455673
C       -0.50544486       1.06892546       5.02657797       0.24564152       0.91484256      -1.82861623
C        1.82795050       1.04888674      -1.23704682      -0.30170276      -0.92935546      -0.35229807
C       -2.28383062       2.63939145       4.59001591       0.51822097       2.23858106      -1.97688521
C       -1.74113605       1.59635117       5.29474308      -0.63139016       0.49017822       0.05351616
C        0.16324940       1.62742605       3.95392181       0.38223289       2.11417755      -1.42273525
C        0.49170578       1.02412590       0.77991851       0.45133559      -1.37838543       0.88067971
C       -0.34593747       2.76066663       3.11808970      -1.84580886      -1.48404775       0.57014579
C        1.08712663       0.35217308      -0.26089011       0.16301173      -0.81475942      -1.60673013
C       -1.61757133       3.24243881       3.42471125      -0.10824498      -2.19863027       1.45656787
N        0.03244277       3.28472807       1.84814681       1.34464390      -0.79446413      -1.00754891
N        0.62665667      -0.97047911      -0.18713353       1.32401414       1.56467582      -2.28215436
C        2.50278129       3.13377597      -2.22654245      -0.25737816      -0.04410001      -2.14231971
C        3.52566864      -2.23412869      -0.03543041       0.97554475      -0.48233628      -1.78074467
C        0.48048576      -3.58410976      -2.99142382      -1.03063613       0.40183060      -3.17466226
C       -2.17402075       4.10449841       2.27465500      -0.03321417       0.49243908      -0.10786009
C       -0.93272791       4.40356972       1.32209095      -0.62571179      -1.11334023       1.67185839
C        2.18109562      -2.89790866      -0.37328337       0.11570400       1.52220148       0.43228467
C        0.05858221      -2.81566904      -1.81579492       0.18751941       0.29874634       1.63206361
C        1.14323868      -2.01347706      -1.11622570       0.15719667      -1.19563979       0.05186345
H       -0.19240091       0.21098434       5.57911446       0.63324995      -0.14704221      -0.00422757
H        2.21990730       0.60305581      -2.17137287      -0.27337267       0.07868002       0.99914785
H       -3.16400240       3.16809227       4.90057423      -0.60247797      -0.49293347       0.19236069
H        3.51636769       3.41670968      -2.06208704       0.91877728      -0.05347043       0.34802512
H        1.98317399       4.07435276      -2.35137174      -0.22588135       0.09989600      -0.53411946
H        2.46902647       2.45146181      -3.14960668       0.03552149       1.44501237       1.14435554
H        3.43499209      -1.21289477       0.36534609       0.13035319      -0.65960881       0.08644519
H        4.22970798      -2.23620389      -0.89795480      -0.74519548       0.63594454       0.00551728
H        4.09644987      -2.93944499       0.56135881      -0.25279059       0.34885036       0.95707054
H        0.90852862      -3.01573274      -3.86999557      -1.36209263       0.16840834       0.58344794
H       -0.46577082      -4.16930673      -3.25647614       1.83910687       0.45053416      -0.30808041
H        1.34311213      -4.15428302      -2.88555190       1.02997775      -1.93279435       1.05236485
H       -2.64220950       5.02422287       2.69643118       0.30792911      -0.58169247      -0.63751696
H       -2.90275333       3.58794405       1.60867467       0.17702292       0.05605053       1.10667919
H       -1.19024251       4.32049133       0.23290362       0.58538741      -0.44500629       1.21222598
H       -0.64340541       5.45250370       1.49785914       0.81081918      -0.80073474       0.04518977
H        1.81040813      -3.04264495       0.61535542      -0.98042981      -0.58792091       0.57963091
H        2.31423881      -3.86209819      -0.82792113       0.04473468      -0.26573670      -0.36936619
H       -0.69003258      -2.10174296      -2.10527179      -0.78501281      -0.03194032       0.16904314
H       -0.26857856      -3.60783288      -1.16988359      -0.98779438       0.17344613       0.83214373
H        1.57419481      -1.62591956      -2.04000566       0.58233471       1.30895324       0.76737123
31
Properties=species:S:1:pos:R:3:MACE_forces:R:3 smiles="[H:23][c:9]1[c:10]([c:14]([c:19]([c:15]([c:11]1[H:25])[H:29])[C:5]2=[N:2][N:21]3[C:8](=[C:7]([S:4][C:6]3=[N:3]2)[c:20]4[c:16]([c:12]([c:18]([c:13]([c:17]4[H:31])[H:27])[Cl:1])[H:26])[H:30])[H:22])[H:28])[H:24]" total_charge=0 config_type=PubChem MACE_energy=-44598.626722921705 pbc="F F F"
Cl       0.33974151       7.13314249      -4.06268642       0.22884977      -0.29386594       0.97862770
N        1.02453380      -0.14256982       1.99622299       0.02632549       1.45318207       0.09850222
N        1.14436140      -1.62649200       0.31884047      -0.75609779      -0.65508696      -1.00262683
S        1.02221226       0.34488588      -1.79148171       0.09799299      -0.89751977       0.52198017
C        1.06253984      -1.40924511       1.65729787      -0.45841094       0.10648758      -0.07946338
C        1.01906198      -0.41614590      -0.19384763       1.85160867      -0.85984534      -0.53148024
C        0.83642190       1.87197425      -1.02137635      -0.47319271       3.14652306       2.34821749
C        0.73037038       1.76751449       0.36072108       1.23171994       1.39260992      -0.78649773
C       -0.28011135      -4.49007032       4.40166022       1.65814737       2.57022557      -1.97955374
C       -0.54486630      -3.08091495       4.59089567      -0.76529247      -1.50631925       2.29293063
C        0.57441945      -4.88832662       3.32212117      -1.12932247       4.68328006       0.38363278
C        1.04067930       5.68253662      -1.77162788       0.60417055       1.63764605       0.71871700
C       -0.05125008       4.54815056      -3.56365535       1.20090192       0.19837267      -0.03357382
C       -0.04622481      -2.07125423       3.78326942      -0.69142975       0.12884468      -0.35956448
C        1.00505402      -3.83025167       2.46612658      -0.52924422       1.50356258       0.73603122
C        1.18332078       4.53164579      -1.03565429      -0.32180852      -2.64285898      -1.73904440
C        0.16588213       3.31321671      -2.95651481      -1.87277247      -0.11468964       1.05488786
C        0.45872011       5.71437504      -3.00442002      -0.83426801      -1.02360064      -1.89870716
C        0.69241465      -2.41629479       2.65835621       0.57832105      -3.12765277       0.26610973
C        0.77975096       3.27435019      -1.70641372       0.03711755      -0.44521335       1.76965051
N        1.08287718       0.49385675       0.78982510      -1.80107926       0.27000927       0.25046899
H        0.58498290       2.60185935       1.08438816       0.19130802      -0.99615318      -0.81422162
H       -0.62620506      -5.18600652       5.09655811      -0.61275926      -0.92928915       0.93759816
H       -1.14427231      -2.78436182       5.54897549       1.05747974      -0.60820118      -2.05654061
H        0.93409952      -5.84041450       3.14299538       0.29546221      -1.83215376      -0.16073174
H        1.42009683       6.64332916      -1.43771455      -0.00657992      -0.24983771       0.46467193
H       -0.40804080       4.65104296      -4.55616138      -0.78735076      -0.28627865      -0.57508434
H       -0.36621300      -1.03161583       3.93430569       0.39966246      -0.57859168       0.06535956
H        1.62680676      -3.97716329       1.60585668       0.16503550      -0.60894761      -0.25682402
H        1.66011717       4.58335592      -0.06310210      -0.11038970      -0.33854281      -0.20412450
H       -0.51678763       2.44038524      -3.18926690       1.52589504       0.90390489      -0.40934737
27
Properties=species:S:1:pos:R:3:MACE_forces:R:3 smiles="[H:16][C:4]12[C:2](=[C:1]=[C:3]3[C:6]4([C:12]5([C:13]4([C:15]6([C:7]3([C:14]56[H:26])[H:19])[H:27])[H:25])[H:24])[H:18])[C:5]7([C:10]8([C:8]1([C:9]2([C:11]78[H:23])[H:21])[H:20])[H:22])[H:17]" total_charge=0 config_type=PubChem MACE_energy=-15749.323343240034 pbc="F F F"
C        0.68922476       0.81513785       0.40228179       1.11747148      -0.48631751      -0.21408767
C        1.72345068       0.62137753       1.15840646       0.03857006       0.94957102       1.14450686
C       -0.13619176       0.76634707      -0.58403537      -2.96861233      -0.05690037      -0.92176798
C        2.15584042       1.53929450       2.30494144      -0.59493604      -4.06736559      -0.68809070
C        2.37955119      -0.68498061       1.47263678       2.15755253       0.10630602      -0.92022950
C       -0.90223406       1.99669697      -1.11712799       0.60134652       0.94088210      -3.32614688
C       -1.13048492      -0.38710640      -0.98916123       1.09687059      -0.25950443       3.16617599
C        2.22336008       0.57085681       3.46725251       0.53948916       1.19038450       3.96909103
C        3.45934965       0.99477293       2.76675178       2.07415554       1.37514448       0.52744985
C        2.48595312      -0.84511540       2.94992234      -1.04589242      -0.40110877       1.25145174
C        3.65023114      -0.35073368       2.22900894       1.27975600      -0.72580806      -1.29017470
C       -1.61126277       1.43899592      -2.43584344      -1.16654778       1.07989767       0.02671516
C       -2.38335154       1.71431758      -1.13483021      -0.96357049       2.11264492      -0.44691771
C       -1.85824654      -0.06418655      -2.18417142      -0.29189027       1.36553619      -0.67094061
C       -2.47381804       0.27293002      -0.82312677      -2.27210852      -2.23696766      -0.39977657
H        2.34290351       2.52511646       2.09791078      -1.24596255       2.57599510       0.46513810
H        2.42126586      -1.52793739       0.84077095      -0.37039978      -0.59414065      -0.71945411
H       -0.58389828       3.08573749      -1.15071962       0.02505362      -1.84485826       0.16526554
H       -0.95513484      -1.45855186      -0.73732982      -0.17608464       1.26764386       0.12403669
H        2.15703895       0.72603386       4.56220104      -0.56319846       0.34076828      -1.11037553
H        4.27622559       1.57017138       3.21006348      -0.66190651       0.12311473      -0.37847727
H        2.79672863      -1.63819955       3.63427784      -1.44224212      -0.20629932      -0.49217398
H        4.58027698      -0.85222433       2.23518624       0.55861001      -0.52303673      -0.57422931
H       -1.82276366       1.94356384      -3.41249702       0.60423170      -0.34614287       1.35433964
H       -3.33140895       2.39333870      -1.19816563       2.37975307      -1.01665823       0.79272458
H       -2.46180866      -0.67622040      -2.80052183       0.39060378      -0.75264611      -0.74362926
H       -3.40301249      -0.20164851      -0.47629783       0.89988786       0.08986570      -0.09042338
44
Properties=species:S:1:pos:R:3:MACE_forces:R:3 smiles="[H:28][c:8]1[c:12]([c:16]([c:7]([n:3][c:6]1[H:27])[N:18]([H:34])[c:15]2[c:10]([c:9]([c:14]3[c:13]([c:11]2[H:31])[C:5](=[C:4]([N:17]3[H:33])[H:26])[C:25]4([C:24]([C:22]([N:19]([C:23]4([H:40])[H:41])[C:21]([H:35])([H:36])[H:37])([H:38])[H:39])([H:42])[H:43])[H:44])[H:29])[H:30])[N+:20](=[O:1])[O-:2])[H:32]" total_charge=0 config_type=PubChem MACE_energy=-30534.90033598226 pbc="F F F"
O       -3.52375791      -1.07968078      -0.97193334      -0.12069261       0.05365436      -0.63844123
O       -1.63629029      -1.79205129      -0.34183673       1.24911996      -0.58249023       0.71431693
N       -0.12034176       0.25687357      -3.62218711      -1.92510811      -0.46709739       0.41486084
C        2.89060904       3.55465557       2.64739134      -1.69081195      -1.32642293      -2.12265475
C        2.17220022       2.42039897       2.52800991      -1.64959611      -3.39594138      -0.07413066
C       -0.76755271      -0.13823084      -4.73147390       2.18895120       1.76733434      -1.93650980
C       -0.69673679      -0.14369539      -2.41623638       3.37610190       0.75449253      -2.56699739
C       -1.87118457      -0.96962796      -4.84509799      -0.15144601       1.07647416      -0.76512374
C        1.86833813       3.34144975      -0.92617796       2.37342773       3.34646163       0.63876090
C        1.25512793       2.31305530      -1.55086348      -0.26753481      -1.09634931       2.55072091
C        1.03341474       1.17913427       0.47804503      -0.35551153      -1.26993429       1.32644838
C       -2.42937110      -1.29290507      -3.64053247      -1.42864635      -0.50220438      -0.04904164
C        1.76808288       2.15493228       1.11842706       0.79094111       2.03034555       2.10692218
C        2.20653155       3.30442955       0.43507568      -1.26915021      -1.59694512       0.57913994
C        0.77744860       1.19882574      -0.85496555       0.25842692       0.90092657       0.74148989
C       -1.79891226      -0.96189020      -2.45213935      -0.43210833      -0.01299373      -0.60689170
N        2.78373434       4.13820531       1.37117680       1.60994230       1.57472973      -0.40432180
N       -0.05458788       0.15568858      -1.26622937      -1.49108572      -0.78951978      -0.32303181
N        0.63825101      -0.73998401       3.73210551      -1.19522718       1.81279308       1.88390005
N       -2.34355733      -1.30275486      -1.18830631      -2.81209991      -0.30613649       0.69386767
C       -0.59715615      -1.59319637       3.78239967       1.84783924       1.31567322       0.08814390
C        1.90551546      -1.15238533       3.18610098      -0.39670032      -0.42596957      -0.29598957
C        0.48457791       0.78312971       3.89496114       1.11474478      -1.46789538      -0.66088682
C        2.84399845       0.07860675       3.22211959      -1.47885463      -0.07957762       0.01391087
C        1.94821849       1.34101286       3.58112862       0.57414663       0.11136145      -0.11756863
H        3.53127506       3.76074412       3.47810532       0.03254328       0.99006069      -0.02460095
H       -0.37527821       0.33184875      -5.74278686      -0.47581689      -1.04536031       2.26915157
H       -2.34625671      -1.05769942      -5.85770557       0.41879189      -0.31164892       1.46182996
H        2.27284255       4.27843859      -1.38960359      -0.78544653      -1.20755393      -0.49385060
H        1.12584402       2.23968103      -2.52068970      -0.54773349       0.48623734      -4.75080870
H        0.57763378       0.33355572       0.98817058       0.41114151       0.22962856       0.55759303
H       -3.43775485      -1.70074938      -3.66436527       0.34616611      -0.35036052       0.53836568
H        3.19224812       5.03274014       1.16067257       0.00826267      -0.21392032      -0.17406909
H       -0.55727849      -0.33760968      -0.52450285       1.15126847       0.55397793       0.12554552
H       -0.24687282      -2.56795762       4.16007330      -0.54690179       0.11050529      -0.56371128
H       -1.19291661      -1.14136992       4.59291317      -0.16704151      -0.33641065      -0.57676445
H       -1.15795026      -1.62401936       2.80263950       0.47796928      -0.21853855       0.98982482
H        1.68432345      -1.44910798       2.16571357       0.57930880      -0.22149733      -0.61710923
H        2.35316088      -2.06476925       3.67861130      -0.46602687       0.93225827      -0.14016484
H        0.12225267       1.13857891       4.90159418       0.44874197      -0.74817189      -0.82383515
H       -0.26200656       1.07776525       3.15881397       0.07693315       0.51982866      -0.07018020
H        3.34909775       0.18468504       2.25520899      -0.08509039       0.13583433       0.43629917
H        3.55019094      -0.04822187       4.01172378       0.66507010      -0.08319194       0.32020223
H        2.36464276       1.84326710       4.46025040      -0.26120772      -0.64644576       0.34538957
47
Properties=species:S:1:pos:R:3:MACE_forces:R:3 smiles="[H:30][c:12]1[c:11]([c:14]([c:15]([c:13]([c:16]1[C:21]([H:37])([H:38])[N:18]2[C:22]([C:24]([C:25]([C:26]([C:23]2([H:41])[H:42])([H:47])[N:19]([H:33])[C:10]3=[C:9]([N:17]([C:5]4=[N:3][N:4]=[C:6]([C:8]4=[C:7]3[H:27])[C:20]([H:34])([H:35])[H:36])[H:32])[H:28])([H:45])[H:46])([H:43])[H:44])([H:39])[H:40])[H:31])[F:2])[F:1])[H:29]" total_charge=0 config_type=PubChem MACE_energy=-32948.80482775981 pbc="F F F"
F       -1.96401689       7.53234388      -1.22370885       0.37567159      -1.07124414      -0.13628206
F       -3.25072262       5.82440617      -3.00412057      -0.21765175       0.16583495       0.14219694
N        1.53479924      -3.88984630       5.20308449      -0.44219718      -0.91835826       0.61106266
N        1.96471085      -2.77909396       5.95492413       0.46785228      -0.46198196      -1.04455623
C        1.50674315      -3.55907486       3.94640877       0.00576830      -0.51446205      -0.20316015
C        2.27672710      -1.79838369       5.14488890      -1.25467776      -0.60856617      -0.34709958
C        1.79321399      -1.59520815       2.56995036       0.04605010      -0.97353830      -0.38188138
C        1.87777414      -2.18950364       3.80573227       0.62661099       0.90461924      -1.57496184
C        1.20814063      -3.75517366       1.55286862      -0.23022699       0.54578535       1.75896796
C        1.41941258      -2.40389058       1.40756335       0.39040669       0.06538021       0.06798403
C       -0.85044954       5.64997007      -0.21059833      -1.15625979      -1.09908756      -1.34487135
C       -0.77825329       4.25857284      -0.08295284      -0.16563754      -0.18979236       0.05991685
C       -2.34348557       3.95298936      -1.87525008      -0.50863052       0.02960695      -0.34507118
C       -1.75456235       6.17830278      -1.16161690      -0.49548826       0.00785218       0.05796023
C       -2.51313827       5.33102943      -2.00981496       1.81253285       0.11034731       1.11881945
C       -1.55356405       3.38663532      -0.89951346       1.02351707       2.21451543       0.72269901
N        1.24203517      -4.36485908       2.82860496      -0.02244309       2.02278912      -0.04449038
N       -0.13836471       1.39118459      -0.87306127       1.05273924       0.31882560      -0.06006695
N        1.35622694      -1.91790364       0.08557384       0.60631568       0.06153893      -0.29442337
C        2.84971621      -0.53009055       5.62536766       0.50058623       0.41258661       0.32530756
C       -1.47228310       1.93399193      -0.69567583       0.16241053      -1.23264992       0.00480838
C        0.36070513       1.47346981      -2.28032253       0.73067440      -0.52928439       1.01439295
C        0.02157428       0.09395005      -0.19938622       0.75412812       0.79011197      -0.50249406
C        1.82209720       0.90104511      -2.37422130      -0.73395690       1.05248905       0.71534427
C        1.91332295      -0.48151944      -1.79529569      -0.59431093      -0.51923061       0.02331714
C        1.46087363      -0.50109587      -0.33436809      -2.04736412      -1.11455666      -0.39646082
H        2.07733562      -0.56530843       2.46067836      -0.07617850       0.30526507      -0.22314103
H        0.97090657      -4.27871988       0.63966902      -0.05702259      -0.76762218       0.50792231
H       -0.19516889       6.26231481       0.36453635      -0.01344756       0.54958882       0.29078124
H       -0.11684559       3.83751895       0.69645672      -0.43707576       0.20964255      -0.70423770
H       -2.84682629       3.27667524      -2.55230067      -0.22766778       0.21054889      -0.10485071
H        0.69640257      -5.17929265       3.03292562       0.12768843      -0.47104860      -0.25566357
H        1.10882290      -2.60950992      -0.66084132       0.41869934       1.33684969       1.33349094
H        3.30739405      -0.71660648       6.59783031      -0.07325202       0.03872169      -0.06544357
H        2.10472943       0.25049221       5.76660826      -0.03242468       0.08203247      -0.14991504
H        3.64065983      -0.16480134       4.96215822      -0.21991365       0.00874574       0.04007341
H       -1.77438710       1.73468532       0.33877923      -0.02414274      -0.15708755      -0.22487544
H       -2.16590545       1.40914866      -1.37038253      -0.24216193       0.09713517       0.13924394
H        0.33752438       2.50975038      -2.64111612       0.02602735      -0.21791036       0.42927859
H       -0.29716734       0.91663386      -2.94254682      -0.20126140      -0.38424625      -0.27378641
H       -0.66589425      -0.63853643      -0.57870767      -0.49439646      -0.64035867      -0.54470764
H       -0.24310849       0.19102331       0.85864063       0.20639863       0.21697431      -0.12265902
H        2.14871230       0.86513450      -3.40040729       0.06307868       0.27838530      -0.36985309
H        2.49583699       1.55998614      -1.79515049      -0.31425854      -0.10832659      -0.43120029
H        1.28114225      -1.14824364      -2.42176531       0.08471651       0.19983567       0.57748771
H        2.91059997      -0.89212844      -1.87181017       0.33684033       0.03937343       0.05079551
H        2.10733297       0.10886358       0.28301442       0.46333514      -0.29602908       0.15430177
23
Properties=species:S:1:pos:R:3:MACE_forces:R:3 smiles="[H:5][C:1]([H:6])([H:7])[C:3]([H:11])([H:12])[C:4]([H:13])([H:14])[C:2]([H:8])([H:9])[H:10].[H:19][C:16]([H:20])([H:21])[C:17]([H:22])([H:23])[S:15][H:18]" total_charge=0 config_type="DES370K Dimers" MACE_energy=-17324.937429063895 pbc="F F F"
C        3.78021979       3.96041989       0.40212002       0.13404581      -0.01864859      -0.05545741
C        0.30269000       3.28494024       2.04612994      -0.10573589       0.04793071       0.02236460
C        2.72103023       3.83854007       1.49712992       0.03763931       0.09186075       0.18209334
C        1.36188996       3.40683007       0.95112002      -0.08536770      -0.07536265      -0.25910217
H        4.74959993       4.27309990       0.82538003      -0.37898913      -0.13145483      -0.25696699
H        3.46590018       4.70709991      -0.34641001       0.19071280      -0.30936814       0.24701314
H        3.91407013       2.98961997      -0.10407000      -0.00525425       0.47448773       0.14803698
H        0.16883999       4.25574970       2.55230999      -0.01271257      -0.43534370      -0.12327425
H        0.61702001       2.53826999       2.79464984      -0.24070629       0.34848638      -0.21799134
H       -0.66667998       2.97226000       1.62286997       0.37746516       0.12640564       0.27467370
H        3.05355024       3.09931016       2.25107002      -0.09630960       0.42943280      -0.21834007
H        2.60630012       4.81323004       2.00922990       0.08240117      -0.47483071      -0.10074388
H        1.02936995       4.14604997       0.19718000       0.14837644      -0.40477931       0.25353549
H        1.47661996       2.43212986       0.43901998      -0.08669406       0.58795273       0.08763849
S        3.17896986       0.21366000       0.34851000      -0.05444157      -0.39790196      -0.01078187
C        0.67910999      -0.16634001       1.55246007      -0.23140220      -0.01551289      -0.09075462
C        2.13990998       0.14995000       1.84079003       0.21125504       0.08993108       0.52805203
H        2.97493982      -1.06626999      -0.02917000       0.05471877       0.28726452       0.07237070
H        0.25505999       0.57670003       0.85626995       0.15384469      -0.40409263       0.31857178
H        0.09381000      -0.14687000       2.48714995       0.19600357      -0.02923876      -0.38574247
H        0.58464998      -1.16736007       1.09898996      -0.01127114       0.42860797       0.18694350
H        2.24160004       1.15910995       2.28429007      -0.04242580      -0.67100989      -0.20833281
H        2.57488012      -0.57647997       2.55391002      -0.23515256       0.45518376      -0.39380584
35
Properties=species:S:1:pos:R:3:MACE_forces:R:3 smiles="[H:23][c:8]1[c:9]([c:11]([c:13]([c:12]([c:10]1[H:25])[H:27])[S:22](=[O:3])(=[O:4])[N:14]2[C:18]3([C:19]2([C:21]4([C:15]([C:20]3([C:16]5([C:17]4([C:7](=[O:2])[O:5][C:6]5=[O:1])[H:31])[H:30])[H:34])([H:28])[H:29])[H:35])[H:33])[H:32])[H:26])[H:24]" total_charge=0 config_type=PubChem MACE_energy=-38345.483028706134 pbc="F F F"
O        2.16789963      -4.19202850       0.02749618      -0.13688702       1.32890283       2.36641750
O        2.13165071      -1.96920846       3.88672640       0.18596026      -1.32832408      -1.40777719
O       -0.41041646       1.50892593      -2.47374270      -0.20566998      -0.48329366       1.77183524
O        1.00300177       3.01638414      -1.17624519      -1.38979635      -0.97846780       0.54559202
O        2.21629169      -3.39015839       2.13647201       0.50004074      -1.90624781       0.90304211
C        2.01423194      -3.28478930       0.83668198      -0.07844328      -1.42818450      -6.11551130
C        2.02993574      -2.21979973       2.70352461      -0.43371451       4.45221416       3.31464583
C       -3.63416383       3.29751017       1.35047795      -0.32634274      -0.04348446      -0.62860034
C       -2.46349142       2.90586974       2.00938525      -0.54028515       0.42308464      -0.48136857
C       -3.71715495       3.27567007      -0.07014881       1.25652172      -0.63806675       1.21206321
C       -1.36083374       2.52881839       1.26818683       0.37430174      -0.43987040      -1.36474579
C       -2.62223861       2.84880307      -0.82187352       1.49383509      -0.28665982       0.42270812
C       -1.43173347       2.46594443      -0.14848301      -0.59810517       0.02392667       0.39823225
N        0.72019397       0.65161510      -0.22764651      -1.25554946      -0.15418948      -0.75071191
C        3.63255550      -0.66246019       0.50902582       0.83599525       0.31979625       1.10459882
C        1.58578791      -1.88035295       0.37508126      -0.57450498      -0.06399031       0.75240885
C        1.62311222      -1.13607333       1.71639731      -0.71138435       0.42393450      -0.33678202
C        1.97221877       0.25523677      -0.87532899       1.25225773       0.91262725       0.75055250
C        1.93642559       0.99256792       0.49636821       1.75452799       0.33219414      -1.68559415
C        2.60037615      -1.10663114      -0.49171350      -0.47152755      -0.77447144      -1.30168520
C        2.61967947       0.01287093       1.44108327      -0.27270053      -0.26794340       1.74123276
S        0.00187018       1.94036474      -1.15102110       1.42351977       1.99566280      -0.64326000
H       -4.48826358       3.60420730       1.97374477       0.40052508      -0.16722993      -0.60614017
H       -2.42947934       2.92023685       3.09506204       0.08394773      -0.00475147      -0.26058984
H       -4.59814117       3.48584558      -0.61721895      -0.82676874       0.45826558      -0.04707939
H       -0.44785485       2.24338915       1.76282038       0.11607640      -0.05833147       0.04609559
H       -2.60049794       2.82670524      -1.91673706      -0.33434200      -0.07247757       0.52789258
H        4.14751102      -1.49210808       1.04412027      -0.07631775       0.52050841      -0.56661682
H        4.34581663       0.09506421       0.13527860      -0.21585459      -0.70618700       0.03403603
H        0.57982479      -1.90105817      -0.08466367       0.70326277      -0.26432162       0.23740679
H        0.66046680      -0.69110260       2.02367332       0.43596364      -0.54482830      -0.02181555
H        2.35894670       0.77085828      -1.78928802      -0.72421644      -0.39729947       1.03142134
H        2.33996751       2.00126161       0.54951254      -0.67664600      -0.04480996      -0.32993176
H        2.99337222      -1.68339274      -1.34338806      -0.39809387       0.26987898       0.31967319
H        3.04433538       0.48221659       2.36758187      -0.56958547      -0.40756549      -0.93164471
4
Properties=species:S:1:pos:R:3:MACE_forces:R:3 smiles="[H:3][C:2](=[O:1])[H:4]" total_charge=0 config_type="DES370K Monomers" MACE_energy=-3117.3359170070103 pbc="F F F"
O        0.63383925       0.29521933      -0.58302605      -0.92422825      -2.69443048       3.51030541
C        0.50566208      -0.40693975       0.45348242      -0.81631922       1.39065413      -5.24030406
H       -0.11965937      -1.27828979       0.67535341      -0.89032083      -0.01244161      -1.24429029
H        1.07424092      -0.29900452       1.27401233       2.63086831       1.31621795       2.97428895
49
Properties=species:S:1:pos:R:3:MACE_forces:R:3 smiles="[H:25][C:7]1=[C:11]([C@:23]([C@@:22]([C@:21]2([C:10]1=[C:8]3[C:9](=[C:6]([C:5](=[O:2])[C:14]([C:15]3([H:35])[H:36])([H:33])[H:34])[H:24])[C:16]([C:17]2([H:39])[H:40])([H:37])[H:38])[H:48])([H:49])[C:18]([H:41])([H:42])[C:13]([H:30])([H:31])[H:32])([C:19]([H:43])([H:44])[H:45])[C:20]([H:46])([H:47])[O:3][C:4](=[O:1])[C:12]([H:27])([H:28])[H:29])[H:26]" total_charge=0 config_type=PubChem MACE_energy=-27320.226347394906 pbc="F F F"
O        0.57395361       5.09225180      -1.48997114      -0.16160906      -2.43232884       0.26802601
O       -3.61302039      -3.94594333       3.04926183       2.56429170       2.83387580      -0.19115220
O        0.16866442       3.98905994       0.55520751       1.11367155       1.19810898      -1.48593812
C        0.38780651       5.08171703      -0.29520450       0.06116143       2.29773466      -0.92116895
C       -2.69603512      -3.11744330       2.73378112      -3.23122238      -3.58747307      -0.99676165
C       -2.43726871      -3.01294062       1.24861892      -1.08509590      -0.43470272       0.88341452
C        1.11651280       0.49145621       2.05000939       1.91642858       2.65426611       0.36964433
C       -0.74568997      -1.32758627       1.77059748       3.01536738       2.13583755       0.52127577
C       -1.47108910      -2.19687698       0.82512443      -0.05373934      -0.51555227      -0.18021573
C        0.24476119      -0.46800641       1.28492984       0.51514112       0.19323040      -1.03032008
C        1.83436086       1.67056121       1.51041635      -2.69421661      -5.40266829       0.75477214
C        0.43402970       6.58603813       0.19053950      -2.44636021      -1.18828233       0.51865114
C        3.86111643      -0.43358133      -0.06252936      -0.62538897      -1.50596100      -1.45075397
C       -1.71147988      -2.60266302       3.74632504      -0.34156294       0.81419751       0.50710727
C       -0.89288495      -1.33917950       3.37134005      -4.37370348      -0.56980628      -3.67905016
C       -1.13298247      -2.22410176      -0.64460836       1.01488991       1.81200210      -0.31142464
C       -0.61791799      -0.81881664      -1.07585929       0.61248562      -0.29833817       0.68827416
C        2.87011768      -0.06819425      -1.16937206       1.27468808      -1.65804873       0.25117779
C        2.74209549       2.85153629      -0.51703594       0.56023890       1.71580021      -0.04641903
C        0.30360451       2.67217614      -0.06451176      -0.91342836      -1.37902385      -0.52732680
C        0.69662516      -0.54266010      -0.22636983      -3.70504575       0.88479678       0.41716128
C        1.56301643       0.56358113      -0.83823035      -0.33475846       0.37984295       1.50424308
C        1.65699508       1.89335420      -0.00954143       0.83544248       1.45735443       1.85023291
H       -3.06728122      -3.66654155       0.53555483       1.14453409       1.20284735       1.51798202
H        1.24034234       0.21644431       3.14483883      -0.18365542       0.88776113      -1.41340667
H        2.40532090       2.36441900       2.15179493      -0.41126650      -0.68353745      -0.43673875
H        1.23014870       6.72871782       0.80041363       2.82352800       0.11400857       1.89025450
H        0.54945804       7.34060480      -0.60118744      -0.43225239      -1.04138982      -0.10718659
H       -0.37565515       6.86433746       0.87120121      -0.30923353      -0.17016386      -0.37792455
H        3.30012777      -0.73668978       0.79228243       0.08155603      -0.27039453       0.80576268
H        4.49921419      -1.26229451      -0.44247178      -0.52292430       0.36241446       0.45230216
H        4.51811458       0.33798857       0.12598028       1.17529762       1.78171246       0.91828171
H       -2.19364164      -2.52574656       4.74501421       0.30804007      -0.14448485      -0.77048535
H       -1.06414304      -3.46154258       3.74882700       0.67502545      -0.37565375       0.40115125
H       -1.46167049      -0.42451314       3.62979390       0.48359918      -0.49735836       0.12162912
H        0.03741162      -1.35326872       3.77965834       2.42694824       0.04824753       1.24637715
H       -1.87132428      -2.61668584      -1.30438039      -1.47517479       0.22249894       0.05650083
H       -0.37844536      -2.95127199      -0.88475332       1.01752861      -0.20865236       0.50559282
H       -0.49238024      -0.70879481      -2.15371845       0.43356883      -0.36402995       0.06113831
H       -1.32461367      -0.03903828      -0.82075367      -0.39247735       0.01681188       0.17790377
H        3.38471367       0.39553712      -1.95112584       0.79370385       1.36519818      -1.06687966
H        2.70253017      -1.04493091      -1.60800216      -0.80332812      -0.12945646      -0.32417945
H        2.68589999       3.83613111       0.01661678      -0.50863973      -0.74107127      -0.39231494
H        2.64634325       3.10630109      -1.58209536      -0.19089344      -0.25580968       0.28018084
H        3.80601551       2.67874577      -0.34376261      -0.19180648      -1.11848248       0.01839035
H       -0.39102737       2.00030854       0.51657297       0.25988826       1.07053830      -0.96797198
H        0.09883778       2.72618033      -1.13864563      -0.62541380       0.31935037       0.35960144
H        1.17077234      -1.47097895      -0.24946616       1.40250442      -1.25292216      -0.17756402
H        1.13932361       0.80252822      -1.79142020      -0.49633208       0.45715589      -0.49184605
28
Properties=species:S:1:pos:R:3:MACE_forces:R:3 smiles="[H:28][c:16]1[c:19]([c:15]([c:18]([c:17]([c:20]1[c:12]2[c:14]([c:13]([n:7][c:11]([n:6]2)[H:25])[N:21]3[C:10](=[C:9]([C:8](=[N:5]3)[H:22])[H:23])[H:24])[H:26])[F:2])[Cl:3])[H:27])[C:4]#[N:1]" total_charge=0 config_type=PubChem MACE_energy=-37338.17131548224 pbc="F F F"
N       -1.26765118      -3.28889272      -3.05482385       1.75732926       0.45819317       2.96771786
F        2.44847395      -2.01574037       2.48983159      -0.56856410      -0.27423311      -1.48686994
Cl       2.15942861      -4.94885156       1.85880234      -0.17613543       0.49975462      -0.15342701
C       -0.62735925      -3.11290143      -2.08059571      -1.76248462      -0.48114146      -3.36793006
N       -1.44722233       3.15948369       0.37871036       0.44716320       1.14569693       0.32315247
N        2.79676678       0.59428028       1.21725430       1.53769427       0.57814780       0.13985804
N        2.02857985       2.80714514       1.47213866      -0.06100376       0.95394371      -0.31275679
C       -2.09849308       4.32386639       0.39890227       1.18261803      -0.12647232       0.52216869
C       -1.31268380       5.36668493       1.01134797       0.04684155      -0.49164529       0.30426174
C       -0.11720333       4.77439405       1.37829687      -0.40425727      -0.22946674      -0.03233224
C        3.01995947       1.90839186       1.45007290      -2.73811202      -1.62476820       0.38385245
C        1.58598091       0.21543439       0.86826208      -0.38855191      -0.15402267      -0.83910881
C        0.78820064       2.45123126       1.08079889       1.22981884      -0.64469257      -0.47478665
C        0.56411045       1.13071151       0.70679473      -1.07315047       0.41163017       0.47551683
C        0.72460557      -3.87908647      -0.16768966       0.05710908       0.55227431       0.04493950
C        0.56631632      -1.52790139      -0.63001797       0.04631020      -0.25571995      -0.36424394
C        1.81818821      -2.26671741       1.31034412      -0.46908714      -0.82788766      -0.03801565
C        1.53738858      -3.60935829       0.93001898       0.13303659       0.68304847       0.33443131
C        0.22531232      -2.84396026      -0.97386119       0.78957532       0.28274253       1.45599821
C        1.32816287      -1.23045430       0.49852821       0.51216800       0.33862678       0.82756596
N       -0.23014728       3.43390419       0.96328445       0.66406281       1.05116694       0.71386746
H       -3.09981678       4.42131402      -0.00047252       0.22616749      -0.23220412       0.03876386
H       -1.64682433       6.38273384       1.24816134       0.32612639      -0.62468674      -0.30429992
H        0.75376753       5.20605995       1.95408406      -1.18792478      -1.01309016      -1.06973253
H        4.01567199       2.15477886       1.77345302       0.05538251       0.44806427      -0.13685262
H       -0.42884676       0.83543767       0.42631747      -0.11864419      -0.10835211      -0.17610773
H        0.45722228      -4.89204071      -0.38499061       0.04327928      -0.34710414      -0.06263031
H        0.27507364      -0.73298595      -1.30599115      -0.10676714       0.03219754       0.28699985
27
Properties=species:S:1:pos:R:3:MACE_forces:R:3 smiles="[H:15][c:3]1[c:2]([c:5]2[c:7]([c:4]([c:6]1[N:8]([H:17])[H:18])[H:16])[N:9]([C:12]([C:13]([S:1]2)([C:10]([H:20])([H:21])[H:22])[C:11]([H:23])([H:24])[H:25])([H:26])[H:27])[H:19])[H:14]" total_charge=0 config_type=PubChem MACE_energy=-24423.371915757303 pbc="F F F"
S       -0.02574793       0.99584427      -1.18742213       1.58738211       0.94058993      -1.80559493
C       -1.84735677       0.09668608       0.39460740      -1.47211594      -0.38607338       0.38745245
C       -2.33966205      -0.60474489       1.53368142      -1.47274536       1.43835387      -0.54908065
C       -0.08407126      -0.88898764       2.31441989       1.70474192       0.56407352       0.88846688
C       -0.49664448       0.34153786       0.30054573      -0.12687269      -0.42316039       0.61011115
C       -1.43052206      -1.08665690       2.49554171      -0.83478473      -1.22617561      -0.04286644
C        0.38263664      -0.06988648       1.28513970      -0.67384080      -1.20228433       0.99403095
N       -1.86237190      -1.82240484       3.60226395      -1.00733179       0.83481538      -0.20519491
N        1.71913030       0.29606085       1.29312070       0.07300726      -3.01652562       0.86051627
C        2.79142453       0.82480853      -1.65581748      -2.15311833      -1.96503500      -0.29558934
C        1.64167645       3.18237021      -1.34398029      -1.22933371      -1.66555570      -0.21213869
C        2.05545904       1.45369168       0.67022757       2.11689868       3.83735288      -2.06219964
C        1.69251348       1.61343803      -0.88622401       0.77192043       1.21589306      -0.24792496
H       -2.44856785       0.47678099      -0.51715527       0.48095327      -0.80723890       2.06320825
H       -3.46422074      -0.54652629       1.76348974       1.88136868      -0.60477558      -0.48554276
H        0.67175364      -1.21934698       3.09633448      -1.17183221       0.40590574      -1.07293971
H       -1.29089413      -2.39291070       4.15873386       1.29229126      -0.29020668       0.22088590
H       -2.79150698      -2.16845176       3.64142182      -0.62047001       0.12572396      -0.39921576
H        2.38039377      -0.49174354       1.22489204      -0.64713316       0.92742883       0.07137847
H        2.79374172       1.05152800      -2.72638605       0.00009798      -0.15091263       0.20088297
H        3.78037026       0.90652990      -1.26112316       0.55128505       0.61541858       0.35043755
H        2.52613475      -0.28985349      -1.52018282       0.42844341       1.58437965      -0.47166774
H        1.58370509       3.41958406      -2.47046135      -0.98858783      -0.90659143       1.68051708
H        0.94708963       3.75174381      -0.66496227       0.55076439      -0.55820238      -1.15758267
H        2.60004356       3.52132537      -1.21492085       2.54951182       1.06819432       1.02291517
H        3.17795732       1.56558051       0.86197551      -1.37960961       0.20147525      -0.87209947
H        1.62532046       2.37178793       1.10002526      -0.21089007      -0.55686733       0.52883459
10
Properties=species:S:1:pos:R:3:MACE_forces:R:3 smiles="[H:4][C:1]#[C:2][C:3]([H:5])([H:6])[H:7].[H:9][O:8][H:10]" total_charge=0 config_type="DES370K Dimers" MACE_energy=-5257.479412361937 pbc="F F F"
C        1.02151000      -2.31408000      -0.88362998      -0.09351795      -0.07930817      -0.25101612
C        0.48021000      -1.34045005      -0.43143999       0.74107727       0.72713932       0.08826760
C        0.00000000       0.00000000       0.00000000      -0.58532497      -0.54831408      -0.19403353
H        1.49128008      -3.14247012      -1.38662994      -0.31575712       0.32474656       0.44035628
H        0.79550994       0.73916006       0.19340999      -0.18567791      -0.63212518      -0.16656119
H       -0.62849998      -0.08471000       0.90245003       0.26516249       0.09527679      -0.42201162
H       -0.62568003       0.36594001      -0.83140004       0.17403819       0.11258476       0.50499857
O       -0.90622997       5.64704990       2.02868009      -0.51400534      -0.63107766       1.13511354
H       -1.71841001       5.09541988       2.09446001       1.00349014       0.66901518      -0.03259698
H       -0.53713000       5.65482997       2.94080996      -0.48948480      -0.03793752      -1.10251655
26
Properties=species:S:1:pos:R:3:MACE_forces:R:3 smiles="[H:9][C:4]([H:10])([H:11])[C:5]([H:12])([H:13])[S:2][S:1][C:3]([H:6])([H:7])[H:8].[H:22][C:17]([H:23])([H:24])[C:18]([H:25])([H:26])[S:15][S:14][C:16]([H:19])([H:20])[H:21]" total_charge=0 config_type="DES370K Dimers" MACE_energy=-49835.662095024156 pbc="F F F"
S        4.62700987      -4.85958004      -1.43700004       0.59057016       0.27606702       1.90667481
S        5.51258039      -3.49995994       0.05593000      -0.61687162      -1.26428966      -0.89797915
C        4.73840999      -4.06591987      -3.02500987      -0.07965259       1.44310402      -0.62359528
C        3.53561020      -1.56668007      -0.22981000       0.45312975       0.06396647       1.01472616
C        4.13044023      -2.60609007       0.81858998      -1.62684022       1.16081649      -1.51246921
H        5.59788990      -3.37465000      -3.01907992      -0.38316675      -0.34733649      -0.12757426
H        3.81818008      -3.48166990      -3.19364023       0.49383209      -0.19539769      -0.13227318
H        4.86300993      -4.77503013      -3.86063004      -0.01737800       0.03492682       0.67915130
H        4.31977987      -0.83756995      -0.49452001      -0.40225416      -0.28339160       0.01994658
H        2.71317005      -1.03147006       0.27394000       0.23836317      -0.10488434      -0.33151767
H        3.14581990      -2.01676988      -1.15829992       0.26510358      -0.09414592       0.60758099
H        4.50393009      -2.04912996       1.69936001       0.13009073      -0.43650062      -0.53160106
H        3.25040006      -3.19507002       1.14120996       1.06619117      -0.22486902      -0.07116309
S        1.30465996      -5.38049984       3.20800018       0.14017421       1.10971940       0.66984180
S        0.86740005      -4.14588976       1.63573992       0.83102886       0.04052089      -0.44807570
C        0.97055006      -7.00555038       2.61397004      -0.50115038      -1.20579187      -1.23589981
C       -1.76726997      -4.69682026       1.12672996      -0.28273716      -0.75690210      -0.82223795
C       -0.86778998      -3.72330999       1.81719005      -0.13453318       0.76245388       1.67109037
H       -0.07441000      -7.32496976       2.76441002       0.46441608       0.20121400       0.00327046
H        1.63780999      -7.76959991       3.04711008      -0.18265257       0.58862295      -0.04545163
H        1.16619003      -6.94109964       1.53036999      -0.10534169      -0.42878215       0.43781987
H       -1.78372001      -4.40082025       0.06432000      -0.17000782      -0.48551628       0.31992762
H       -2.80672025      -4.76203012       1.48991000       0.51609657       0.27543551      -0.00891298
H       -1.30335998      -5.69429969       1.20688999      -0.48479165       0.29570180      -0.15930851
H       -1.03930998      -2.68487978       1.47412002       0.35326084      -0.53728395       0.19092658
H       -0.93593001      -3.72832012       2.92207980      -0.55487944       0.11254243      -0.57289708
20
Properties=species:S:1:pos:R:3:MACE_forces:R:3 smiles="[H:12][C:4]([H:13])([H:14])[N:2]([H:8])[C:6]([H:17])([H:18])[C:7]([H:19])([H:20])[C:5]([H:15])([H:16])[S:1][C:3]([H:9])([H:10])[H:11]" total_charge=0 config_type="DES370K Monomers" MACE_energy=-17728.30611892535 pbc="F F F"
S        1.04853487       1.48196697       1.01665163       0.69180737       0.45308290      -0.32023412
N       -1.33332848      -2.20798540      -1.18618226      -2.10211252      -1.19218874      -0.31812848
C        2.23137665       2.59942722       0.20162882      -0.68379627       0.20383342      -0.88030117
C       -1.71881199      -3.17922544      -2.22519207       1.11716637       0.14707480       0.74370717
C        1.35743260       0.08888048      -0.10788210       0.24077211      -0.15959295       0.02744866
C       -0.02489020      -1.67168248      -1.34722125       0.10117181      -0.25324995       1.02431445
C        0.01187230      -0.58753383      -0.30020508       1.53905079       0.07983463      -0.19169853
H       -2.04702592      -1.46974563      -1.09500587       0.74075417      -0.55550824      -0.14944685
H        1.82840729       2.86722898      -0.81237948       0.39008951      -0.03974526       1.03275199
H        3.15347457       2.06665254       0.04999507       0.40588124      -0.11644013       0.05925141
H        2.42972040       3.48996734       0.78973591      -0.18201862      -0.00186273       0.01489617
H       -1.73404717      -2.70968246      -3.20175528      -0.01466042      -0.07345800      -0.50703200
H       -0.91860807      -3.94694424      -2.19621873      -0.64376101       0.20555878      -0.29364720
H       -2.67985105      -3.64862823      -2.03424406       0.02488729       0.07246781       0.17130518
H        1.70778656       0.45733988      -1.08489454      -0.01244339       0.02868970       0.47244380
H        2.15050029      -0.55790847       0.33392161      -0.68963173       0.28650612      -0.43281220
H        0.74520057      -2.45442987      -1.19579458      -0.42168614       0.30855835      -0.03854416
H        0.10579619      -1.23664570      -2.32094311       0.43345001       0.29664829      -0.77732384
H       -0.32019722      -0.95362985       0.66047620      -0.38598075      -0.17586957       0.05887310
H       -0.64607906       0.16643876      -0.68909466      -0.54893982       0.48566078       0.30417663
42
Properties=species:S:1:pos:R:3:MACE_forces:R:3 smiles="[H:29][c:11]1[c:13]([c:19]([c:14]([c:12]([c:18]1[C:6](=[O:1])[O:4][c:16]2[c:9]([c:15]([c:20]3[c:17]([c:10]2[H:28])[O:5][C:7](=[O:2])[C:25]([C:24]3([H:40])[H:41])([H:42])[C:23]([H:37])([H:38])[H:39])[H:33])[H:27])[H:30])[H:32])[N:22]([H:36])[C:8](=[N:3][H:26])[N:21]([H:34])[H:35])[H:31]" total_charge=0 config_type=PubChem MACE_energy=-31620.9456425896 pbc="F F F"
O       -0.59612129      -0.06001840       2.11423757       0.89325041      -0.66099448      -1.61159875
O       -0.95047460      -3.61700199      -4.84150359       0.08701440       2.43983932       2.70175230
N       -0.68186257       7.56400301       4.96291973       0.46061289       0.57168176       0.73160802
O        1.07021274       0.56887800       0.59914586      -1.15364584       1.28267047       1.49012439
O       -0.38112906      -2.22955654      -2.95952842      -1.48261210      -0.59906792      -2.29252356
C        0.04750254       0.78739967       1.53407587      -0.59359765      -1.06101259       1.54197590
C       -0.27285049      -3.34877155      -3.85602519      -0.22529407      -0.18798391      -1.47730244
C       -0.12838731       6.39529039       4.78684713      -3.31295677       3.74417941      -0.25077695
C        1.93297484      -1.67192481       0.49344365       1.15163745      -1.83125488       0.14479431
C        0.40075716      -0.86062918      -1.05704353      -3.04237133      -1.84702447      -4.84667488
C       -1.17995022       2.46177091       2.96503713       1.52957657      -1.01315471      -0.15786577
C        0.77240177       3.16389062       1.53709772      -1.65829634      -0.96914514      -0.62758275
C       -1.15724871       3.74296548       3.48158171      -0.60743587      -0.73721151       0.12721953
C        0.62859462       4.42424681       2.05219259       2.19836333       0.63005861      -2.05544187
C        1.90784790      -2.92446110      -0.13826422      -0.51667296      -0.93199405      -1.46932220
C        1.13159575      -0.66538796       0.00959953       1.08633243      -0.49086942       1.59633682
C        0.39212064      -2.10248325      -1.84843347       1.44528670      -0.28137658       2.54522690
C       -0.16985861       2.15988758       2.00407090       1.98455432       1.87423428      -0.99653581
C       -0.23123238       4.65806200       3.05038192      -1.13036059       0.77272896       0.71582653
C        1.12406936      -3.19382332      -1.35000441       1.00078376       0.39567064       0.72202254
N        0.37025157       5.62416269       5.76423694       0.57615154      -1.70074883      -0.92456698
N       -0.28090326       5.96890642       3.49410488       0.88982413      -0.67860030       1.24123048
C        2.16398420      -3.80198572      -4.22179506      -0.52166039       0.72674152      -2.73250071
C        1.08519425      -4.57351825      -2.14145515      -0.69949302       0.96044606       0.72410457
C        0.87001281      -4.24210021      -3.63548896       0.88407403      -1.39888024       1.99667858
H       -0.67159484       8.07153084       5.88330605       0.50452600      -1.42589906      -1.15102797
H        2.61693670      -1.46472047       1.31073167      -0.28265019      -0.24629355       0.02599346
H       -0.30000911      -0.08260468      -1.32189176       0.05126290       0.02250399      -0.40586200
H       -1.79213235       1.64499571       3.41347005       0.40378128       0.93240292      -0.85071702
H        1.45832898       3.03880741       0.67091387      -0.65185865      -0.48621424       1.01780311
H       -1.90705559       4.09302809       4.15747883      -0.23021986      -0.06774108       0.51515836
H        1.15096738       5.33064176       1.64636507      -0.11400985      -1.28362861       0.46463437
H        2.48656633      -3.82162902       0.19734561      -0.36424727       1.30350324       0.02257805
H        0.90213200       4.83264162       5.39340880       0.13912101       0.52743546       0.98535176
H        0.70232742       6.22492267       6.48394825       0.61976524      -0.44343284       0.67480932
H       -0.60206006       6.64858772       2.86393668      -0.41897673       1.01544875      -0.41317265
H        2.85479929      -4.62079284      -4.14577529       0.27473428      -0.39463883      -0.62528652
H        1.94369211      -3.41324780      -5.26665447       0.67343172      -1.11542464       0.83134740
H        2.65870621      -2.98984787      -3.80869100       0.54611793       1.62864053       1.47390033
H        2.00421955      -5.21828935      -2.10730121      -0.89519250       0.80646638       0.61807216
H        0.18491652      -5.12129161      -1.75391052       1.00307062       0.19840758      -0.28114506
H        0.66720053      -5.15509078      -4.19066903      -0.50172097       0.01953198       0.26135471
45
Properties=species:S:1:pos:R:3:MACE_forces:R:3 smiles="[H:24][c:7]1[c:9]([c:12]([c:10]([c:8]([c:11]1[C:15]([H:31])([H:32])[H:33])[H:25])[C:5]2=[C:6]([C:22]3([C:19]([C:17]([C:21]([C:18]([C:20]3([H:43])[H:44])([H:39])[H:40])([H:45])[O:3][C:14]([H:28])([H:29])[H:30])([H:37])[H:38])([H:41])[H:42])[N:13]([C:4]2=[O:1])[H:27])[O:2][H:23])[C:16]([H:34])([H:35])[H:36])[H:26]" total_charge=0 config_type=PubChem MACE_energy=-26687.99869181039 pbc="F F F"
O       -2.29344843      -1.15027115      -1.50882146       0.86027655       0.29481088      -1.24800647
O        1.33448966       0.81796743       0.78068315       1.13665165       0.88929867       0.68241615
O        3.03948142      -0.56182525       2.12602153       1.42149578       0.74524670       3.48865460
C       -1.24024734      -0.92936418      -0.92915557      -2.79684976      -0.36851569       3.05543512
C       -0.64368019       0.35359519      -0.55513546       3.96797398      -2.24185477       3.05119490
C        0.38371182       0.01849844       0.41824389      -3.40984943      -0.31926960      -2.23203323
C       -0.39822457       4.43023683      -1.66388796       0.24494143       0.10368791      -1.42721507
C       -1.00546048       2.75662209      -0.09896812       0.75141772       0.26746940       0.60281051
C       -0.37867907       3.43532517      -2.65691016       0.21824355       0.25873949       0.29936006
C       -0.74521444       1.70200279      -1.02129553      -0.69873859       1.94632215      -0.69405369
C       -0.75096510       4.11496355      -0.35045335      -0.57940921      -0.46525705      -1.65914689
C       -0.53100810       2.04239657      -2.35153077       1.55437669       2.30394904      -0.67112259
N       -0.78575847      -1.91783498      -0.01038042      -0.79537764       0.55227592      -0.76339119
C        3.76180532       0.32436461       3.11459877       1.74700802      -1.64680943      -0.16595689
C       -1.10444209       5.28085377       0.50449852      -0.23843272       1.89005567       0.99999222
C       -0.11406843       1.04298087      -3.40124128      -0.21325428       0.36169983       0.04010742
C        2.18293538      -2.73710821       1.89790907       0.94224366       2.14023889      -0.73617610
C        0.90921520      -0.96859465       3.37045958       0.34570800      -0.38587238      -1.89745764
C        1.39949056      -2.24299286       0.60781385       5.23293517      -1.53898586       0.93799795
C       -0.25331579      -1.54296634       2.46675994       3.00901801      -0.39472716      -1.54761734
C        2.32779934      -1.58253978       2.90452196      -2.93801227       0.60571543      -2.18339237
C        0.23835438      -1.43296692       0.92292722      -3.32861007       0.57223433       0.06551964
H        2.07303621       0.41075680       1.33489259      -1.04481218      -0.26557659      -0.44698525
H       -0.16468970       5.50208141      -1.94635317      -0.46488930      -1.45432476       0.33271637
H       -1.28091309       2.48797789       0.91579177      -0.06350257      -0.13166667      -0.08587164
H       -0.17827538       3.78753044      -3.69130752      -0.09342180      -0.64549355       0.76743386
H       -1.52372644      -2.59378622       0.23569759       0.89872019       0.71161208      -0.04821172
H        4.89378121       0.21014061       2.99462034      -1.61454451      -0.01232667      -0.20299009
H        3.53202011       1.34841134       2.97256662      -0.49414358       0.85227009      -0.43663531
H        3.58343222       0.07703110       4.18546083      -0.38360220      -0.10050882      -0.97361169
H       -1.29399190       6.27425911      -0.03751812      -0.40577393      -1.85327969       0.05705067
H       -0.31368778       5.70691731       1.13440468       0.21481033      -0.93678991       0.34270966
H       -1.96199486       5.03141929       1.14967104       0.32705348       0.36795351      -0.20674303
H       -0.14534525       1.43781193      -4.41961620      -0.11334727       0.23808595       0.26682625
H        0.92068022       0.67837710      -3.25891850      -0.70624646      -0.09561446       0.24467116
H       -0.87546120       0.29625368      -3.33024690       0.08208504      -1.20753162      -0.28268711
H        1.76671864      -3.58359859       2.32005348      -1.35711720      -1.53044962       1.06932850
H        3.23143031      -3.05040930       1.74777975      -0.45066208       0.24041933      -0.73687924
H        0.70498528      -1.29971514       4.34548905      -0.10805603      -0.26702560       1.47313504
H        0.90707316       0.15857198       3.37996533       0.11625380      -1.25703271      -0.18805022
H        2.19016864      -1.50505111       0.17518460      -1.35565376      -1.97692099      -0.31145431
H        1.13919612      -3.19743273       0.04442333       0.54485319       1.86729678       0.20511590
H       -0.41163812      -2.63372801       2.65736892       0.07422624       0.98228459      -0.00904056
H       -1.13629243      -0.99531553       2.59798481      -1.27303693       0.62556440       0.12844950
H        2.82369806      -1.98887084       3.73892309       1.23705129       0.27860257       1.04380416
50
Properties=species:S:1:pos:R:3:MACE_forces:R:3 smiles="[H:25]/[C:4](=[C:6](/[H:27])[C:11]([H:33])([H:34])[C:10]([H:31])([H:32])[O:1][H:22])/[C:5](=[C:7]([C:9]([H:28])([H:29])[H:30])/[C:15]([H:41])([H:42])[C@:18]1([C@:19]([C@@:20]([C@@:21]2([N:8]1[C:12]([C:13]([C:14]([C:17]2([H:46])[H:47])([H:39])[H:40])([H:37])[H:38])([H:35])[H:36])[H:50])([C:16]([H:43])([H:44])[H:45])[O:3][H:24])([H:49])[O:2][H:23])[H:48])/[H:26]" total_charge=0 config_type=PubChem MACE_energy=-25749.734375825792 pbc="F F F"
O       -2.67980096      -0.32215593      -5.56772516       1.62198337       0.28509721       0.30535224
O       -1.09544633       0.09200155       2.07382622       0.82407710       0.11551709       0.34856598
O        2.18583538      -1.41784177       2.01952400       0.04807296       0.23282582       0.17152728
C       -1.76736162       0.11582437      -2.15181539       1.64908435      -2.72425253      -1.35941448
C       -0.48009525       0.44241856      -1.49808118      -1.32687778       2.82467847       0.98362308
C       -1.88060830      -1.08207557      -2.84229133      -0.86310479       2.39672845       1.41359141
C       -0.22151498       1.62997582      -0.83666978      -0.24861473      -2.40747362      -1.62405546
N        2.26897862       1.35946544       2.02443244       0.42833434      -0.33290908      -0.03305190
C       -1.20045051       2.76735832      -0.86275802       0.58109720       0.85785333       0.99022651
C       -3.01948521      -1.58590195      -5.01254127      -0.76470103       0.10658167       0.44845831
C       -3.17404959      -1.45918963      -3.48989627       0.10636775       0.97445764      -0.19242946
C        3.07446005       2.58430077       2.09495499      -0.10682479      -0.62878577      -0.26712599
C        4.41842844       2.32566490       2.79103496      -0.89267681      -0.22600267       0.24145659
C        4.16346361       1.73580196       4.18639638      -0.23996402      -0.45959196       0.28745580
C        1.10999658       1.72671547      -0.13202367      -0.56188977      -0.62555091       0.05653318
C        0.62368262      -1.32312546       3.89481833       0.38370864      -0.76626996       0.08372730
C        3.38607576       0.37367938       4.06496765       0.17100258       0.49176472      -0.64441714
C        0.93657570       1.39781322       1.36492362       1.32106105       0.16928631      -0.03260184
C        0.30786607       0.00335225       1.69410899      -0.85698077       0.64753486      -1.13712596
C        1.27397116      -0.58594988       2.73939087       0.35122753       0.69425630       1.46424127
C        2.06136038       0.65005953       3.30298807       0.33431792      -0.14600620      -0.92567508
H       -1.81721208       0.01890918      -5.17449424      -1.81248417      -0.96561593      -0.60933195
H       -1.64988420       0.30825007       1.30886915       0.70923113      -0.15687859       0.17172827
H        2.74951556      -0.79265973       1.52900036      -0.29416619      -0.25669643       0.21673056
H       -2.59888408       0.80351075      -2.15943382      -0.02152451      -0.01460027       0.17913656
H        0.27242368      -0.30717120      -1.48552559       0.41190127      -0.57585219      -0.10010166
H       -1.07203386      -1.78785846      -2.92775414       0.36024067       0.01669514       0.18927507
H       -0.67062340       3.73288514      -0.82847259      -0.04375757      -0.32749186      -0.03756762
H       -1.87721918       2.80540659       0.00060340       0.15245679      -0.24708904      -0.06179846
H       -1.80431340       2.79181959      -1.74349425      -0.31909976      -0.18901953      -0.54543480
H       -2.37757108      -2.42587445      -5.31686732       0.38357732       0.45419106       0.21050440
H       -4.00154779      -1.87718413      -5.39667890       0.07551341       0.40977079      -0.23509777
H       -3.90087268      -0.64475367      -3.25016973       0.36946841      -0.72022178      -0.43206955
H       -3.56397102      -2.37346981      -3.08050630      -0.14037381      -0.55169507       0.18347788
H        3.26284291       2.97268941       1.09147038      -0.16748127      -0.12772141       0.05932830
H        2.53617027       3.35242607       2.64962818      -0.12284303       0.32536751       0.18593403
H        4.93971207       3.27157881       2.83029367       0.21498893       0.22993037       0.20112384
H        5.04515697       1.63605645       2.21530785      -0.24555466       0.05036371       0.01848297
H        3.57517578       2.41986777       4.85069563       0.36009770      -0.36191449      -0.74826586
H        5.12517645       1.60681298       4.68856051      -0.13713685      -0.22149001       0.03427073
H        1.49284401       2.73353197      -0.24388198       0.25847060       0.11186235       0.02991204
H        1.81307127       0.99755990      -0.59065399      -0.36350854       0.55729329       0.39925277
H        0.21349727      -0.63631068       4.65251162       0.11747908      -0.27385970      -0.51925257
H        1.33829500      -2.01701591       4.38775780      -0.26133542       0.64470188      -0.34889257
H       -0.15818701      -1.93651364       3.48515799      -0.54027047      -0.27572920       0.13478818
H        3.21788075      -0.05918584       5.06269457      -0.18441829       0.20999814      -0.41509260
H        3.96952488      -0.37098811       3.48565056      -0.18536790       0.51832948       0.34335666
H        0.34760874       2.19820513       1.80887963      -0.46261883       0.00358849       0.24279345
H        0.33416783      -0.65095434       0.80479472       0.28144611       0.31990463       0.49200883
H        1.42623415       1.26109870       3.94735362      -0.35163045      -0.06586055       0.18193922
12
Properties=species:S:1:pos:R:3:MACE_forces:R:3 smiles="[c:7]1([c:10]([c:8]([c:12]([c:9]([c:11]1[Cl:5])[F:3])[Cl:6])[F:2])[Cl:4])[F:1]" total_charge=0 config_type=PubChem MACE_energy=-51953.801015722005 pbc="F F F"
F       -1.35731218       0.00428065       2.49791410       1.59295559       0.01097073      -1.24306492
F       -0.23709903       1.98243990      -1.73168466       0.59258948      -1.11867031       1.73405562
F        3.10735323      -0.41054074       0.76710263      -0.41519640       0.46078568      -0.05555718
Cl      -2.45039270       1.48735675       0.26038532       1.06015511      -0.30853554      -0.09384263
Cl       1.38212570      -1.12700245       3.10713722      -0.08020758       0.37627308      -0.78421885
Cl       2.63579275       1.28989424      -1.71339891      -0.31242628      -0.29238558       0.65219355
C       -0.40383867       0.20077770       1.53644671      -0.04072032       0.70732360      -0.77693659
C        0.14637368       1.26272501      -0.62460671       0.43782392       0.11601021       0.02631723
C        1.87430325       0.09157722       0.66958030      -1.09537758       0.19693022      -0.48170971
C       -0.77473328       0.93614652       0.36984821      -0.92645552      -0.03420768       0.72619608
C        0.92760088      -0.23749468       1.67047872      -0.49289663       0.19393978       0.27513256
C        1.49995305       0.86996632      -0.45907626      -0.32024378      -0.30843421       0.02143484
32
Properties=species:S:1:pos:R:3:MACE_forces:R:3 smiles="[H:13][C:5]([H:14])([C:6]([H:15])([H:16])[C:4]([H:11])([H:12])[O:2][H:8])[C:3]([H:9])([H:10])[O:1][H:7].[H:29][C:21]([H:30])([C:22]([H:31])([H:32])[C:20]([H:27])([H:28])[O:18][H:24])[C:19]([H:25])([H:26])[O:17][H:23]" total_charge=0 config_type="DES370K Dimers" MACE_energy=-16820.4314561993 pbc="F F F"
O        0.00000000       0.00000000       0.00000000      -0.41772624      -0.58221354      -2.90246804
O       -0.87974000       4.59080982      -0.81340003       0.12820280      -0.03776133       0.00560135
C        0.25200000       0.70188999       1.15152001       1.30760134       0.34299507       0.95977215
C       -1.31015002       4.25134992       0.54264998       0.07643475       1.02308132      -0.61376620
C        0.24189999       2.20739007       0.88673002       0.00244548       0.97801707       1.13365819
C       -1.20720005       2.72824001       0.84972000       0.30198339       0.11675020      -0.15269414
H        0.68706000       0.28259999      -0.63913000      -0.87358516      -0.41928198       0.45950632
H       -0.73014998       5.55879021      -0.84560001      -0.21581452      -1.14897900       0.11559574
H       -0.49495998       0.45396998       1.93001008       0.27578104       0.04011434      -0.57694759
H        1.21579993       0.24865000       1.45336008      -0.12415207       1.08168322       0.82761267
H       -2.33642006       4.66177988       0.60405999       0.32534560      -0.65548917       0.47179441
H       -0.64796996       4.91055011       1.13628995      -0.43882704      -0.91280741       0.63509552
H        0.70055997       2.65148997       1.79107999       0.03675288       0.08299272      -0.50803778
H        0.76667005       2.62241983       0.00479000       0.09171794      -0.89233575       0.33900665
H       -1.77214002       2.12276983       0.11508000       0.09497718       0.57777835       0.30030227
H       -1.57132006       2.45801997       1.85959995      -0.44119642       0.65877148      -0.56895369
O        2.41272998      -2.84590006       3.82425999      -0.13545469      -1.60918173       1.54994228
O       -1.15528000      -2.47529006       0.02018000      -0.13995486       0.68106212       0.31390657
C        2.43239998      -3.25058007       2.49586010       0.32332760       1.39581737      -2.37415900
C       -0.22019999      -3.43183016      -0.38835001      -0.55720595      -0.60182627      -0.47626174
C        1.06646001      -3.40469980       1.81788993      -0.35034901      -1.71197072      -0.67043200
C        1.12205005      -3.21949982       0.24673000       0.88627302       0.97365142       1.11510341
H        2.43505001      -3.69821024       4.30743980      -0.16133044       1.19146824       0.08560934
H       -0.71323997      -1.61149990      -0.11722000      -0.60099172      -0.41036444       0.25105999
H        2.83359003      -2.37560010       1.94913995       0.43416017      -0.41725941       0.20522902
H        3.13204002      -4.09426975       2.34047985      -0.51390687       0.25892161      -0.08392367
H       -0.21625999      -3.40868997      -1.49510002       0.55244162      -0.30155763       0.34224666
H       -0.57091004      -4.43360996      -0.07389000      -0.09353773       0.44224111      -0.23847792
H        0.68140995      -4.43392991       1.95151996      -0.03419886       0.41016125       0.34360305
H        0.34005001      -2.71059990       2.28262996       0.47089920      -0.29046311      -0.46021559
H        1.43993008      -2.16263985       0.16053000      -0.07819598      -0.40235570      -0.57943236
H        1.85982001      -3.83846020      -0.29919002      -0.13191644       0.13834028       0.75112413
29
Properties=species:S:1:pos:R:3:MACE_forces:R:3 smiles="[H:26][c:15]1[c:17]([c:20]([c:18]([c:16]([c:19]1[C:8](=[O:2])[O:6][C:14]2=[C:13]([C:12](=[C:11]([C:10](=[C:9]([C:7]2=[O:1])[H:22])[H:23])[H:24])[H:25])[I:5])[H:27])[H:29])[N+:21](=[O:3])[O-:4])[H:28]" total_charge=0 config_type=PubChem MACE_energy=-34487.914941433606 pbc="F F F"
O        0.94680645       0.91320877       3.21181395      -2.20203918      -1.49743168      -0.18569797
O        2.07445755      -0.18129060       0.93270411       1.06145268       0.80103267      -0.31146326
O       -2.70569131      -3.60381505      -3.05173061      -0.38438042       0.32696187       0.37620011
O       -1.66091583      -5.11008213      -1.92665598      -0.32502507       2.13123218       0.56303611
I        0.32651358       4.21115877      -1.32561753       0.69660781      -0.77630413       2.35100581
O        0.59324343       1.34587618       0.32825739      -0.75673192       2.28702173      -0.29004099
C        1.40190282       1.86293378       2.65653970       0.79490701      -0.06476881      -0.82262033
C        1.13963016       0.16417321       0.25211992       1.99012762      -1.70876680       3.29486048
C        2.55337812       2.40872135       3.33208086       0.33022974      -0.18787431      -0.65751504
C        2.83332326       3.69215777       3.37596943       0.65146483       0.82888056       0.09509241
C        2.02883365       4.74195863       2.86952474      -4.37510499       1.66824111      -3.36753058
C        1.05457344       4.68950607       1.80019011       3.34680818      -0.54661417       1.78118652
C        0.98537030       3.60132243       0.82341682      -1.13239425       0.99904032      -0.18261148
C        1.05156465       2.32715465       1.22398468      -0.24649413      -1.06345425      -0.22025797
C       -0.40655420      -0.59806381      -1.45617471      -2.60983532      -1.58465277      -1.78660085
C        0.37314919      -2.11548422       0.07761159       0.54980341      -2.85404694       2.68825968
C       -1.20835433      -1.58450554      -2.04798362      -0.49558643       0.19849772      -2.07725584
C       -0.44785074      -3.08920834      -0.43709091       0.89194133      -0.58584074       0.30149607
C        0.39037155      -0.87271271      -0.37799291      -1.46032303       2.28556164      -2.90915323
C       -1.16995571      -2.86096666      -1.56053278      -0.16858476       0.51348189       0.81694927
N       -1.93946884      -3.91300247      -2.16114185       0.34895906      -2.83998472      -1.79820369
H        3.12698104       1.65719011       3.87484266      -0.08564305       0.31434092      -0.26254960
H        3.71756460       3.92718293       3.89750602       0.73197757       0.70411293       0.75769276
H        1.91234877       5.75643064       3.29781391       0.84616538      -0.99414263       0.40645641
H        0.41242464       5.54989054       1.67153003       0.24881800      -0.00608784      -0.24641740
H       -0.69455252       0.28398370      -1.92831061       0.81252037       2.15312944      -0.02843621
H        0.93721946      -2.36193392       0.97764810      -0.03989409       0.12657357      -0.36544906
H       -1.83591483      -1.45479546      -2.99580524       1.04590543       0.35442462       1.69728810
H       -0.44425914      -4.04084966       0.01162150      -0.06565178      -0.98256338       0.38227979
46
Properties=species:S:1:pos:R:3:MACE_forces:R:3 smiles="[H:32][c:12]1[c:14]2[c:16]([c:15]3[c:13]([n:4]1)[C:11](=[C:10]([S:6]3)[H:30])[H:31])[N:18]([C:9](=[N:3]2)[C@@:26]([H:46])([C:25]([H:43])([H:44])[H:45])[O:5][H:27])[C:24]4([C:21]([C:19]([C:23]([C:20]([C:22]4([H:39])[H:40])([H:35])[H:36])([H:41])[N:17]5[C:8](=[N:2][C:7](=[N:1]5)[H:28])[H:29])([H:33])[H:34])([H:37])[H:38])[H:42]" total_charge=0 config_type=PubChem MACE_energy=-40836.1189221749 pbc="F F F"
N        2.22411301       2.32378354       4.40194847      -0.98392552      -0.00489097      -0.21064785
N        3.96719482       3.69663121       4.78830912      -0.98104136      -0.43993308       1.69685412
N       -1.64257930      -0.52358816      -2.38878462       1.05404364      -0.32657169       0.81472315
N       -2.39516947      -3.35647294      -0.15304730      -0.31593363      -0.26324578      -1.06047726
O       -1.78056763       1.77201404      -3.62183425       1.16923089      -0.04911435       0.89529507
S        0.27835079      -1.82747267       2.28640487      -0.62011298      -0.93278758      -0.27195168
C        2.94546725       2.90859415       5.32830860       0.58098319       0.36689580      -0.45228472
C        3.76759984       3.59399535       3.51084258      -0.01516579      -0.23859735      -0.24072824
C       -0.70361898       0.33405193      -2.04018829      -1.25967576      -0.39119963       0.00122148
C       -0.55884347      -3.21742580       2.97726252      -1.62575897      -0.67089784      -2.06806207
C       -1.46729336      -3.77045343       2.05487825       1.50095318       0.43100021       2.58902885
C       -2.43479154      -2.62479255      -1.26088689      -0.25793736      -0.13177914       0.82309809
C       -1.49108884      -3.08118961       0.81101685      -0.37064780       0.27481281      -0.52471000
C       -1.59210107      -1.52529499      -1.40999017       0.29229836       0.51954371      -0.11844857
C       -0.57939861      -2.02249405       0.75004727       0.52278723       0.86756794       0.05595822
C       -0.62282036      -1.22755358      -0.42908261      -0.64420991       0.07814561      -0.15090821
N        2.70325567       2.79733469       3.23495962       1.04491773       0.32227410      -0.98371698
N       -0.05505649      -0.04255352      -0.87847803       0.32362133       1.24413107      -0.08453983
C        2.45125344       0.80645164       1.80274357      -0.09908132       0.42710441      -0.67164948
C        0.78117739       2.78295829       1.62149872      -0.23477065      -0.71499958       0.01572349
C        2.02089682       0.22703074       0.43872776       0.37837779       0.42158328      -0.38137105
C       -0.03830079       1.62983694       1.00574958      -0.23411857       0.89539326      -1.03367872
C        2.23087885       2.34935381       1.88344111      -0.13474123      -0.87717069       1.31941386
C        0.74507554       0.91206457      -0.10996352       0.47333732      -0.21635907       1.05906529
C        0.67111131       1.43033811      -3.82950303      -0.91687882       1.53382089      -0.55426042
C       -0.54497430       1.61338450      -2.87537525       0.23072631      -0.66401172      -0.45373895
H       -2.29703209       0.96052148      -3.43905089       0.34275158       0.40179828      -0.19095783
H        2.67864992       2.77817585       6.39294292       0.63115557       0.15326141      -0.91677790
H        4.43899848       4.05812265       2.81156494      -0.32782318      -0.05469816      -0.46658075
H       -0.39625946      -3.57701156       3.99462463       0.11653527       0.37705798      -0.49835168
H       -2.11571715      -4.61261985       2.31387748       0.32876571       0.41712618      -0.30386178
H       -3.20528243      -2.79473636      -2.02470253       0.33849271      -0.24229365       0.49612865
H        1.87503769       0.31849827       2.57413508      -0.03922418       0.15431886       0.34063349
H        3.50751450       0.59579482       1.98861815      -0.19783521       0.00625127      -0.00584741
H        0.27903523       3.07986381       2.53321173       0.12632685       0.02011824       0.26363572
H        0.80445199       3.66667416       0.98797082      -0.16790946      -0.08563269      -0.18739194
H        1.90548172      -0.86911008       0.46963417       0.16992069       0.60583014       0.08612765
H        2.77798798       0.46743992      -0.32348106       0.06180335      -0.46279606       0.38857089
H       -0.38181076       0.96665903       1.76800086       0.08063840      -0.65679823       0.51496104
H       -0.95408390       2.05187871       0.58335526       0.08597531      -0.03181613      -0.10962171
H        2.81462290       2.84707811       1.12058361       0.66162573       0.03871846       0.28759367
H        1.13613715       1.69223001      -0.76523540      -0.55543684      -0.19684161      -0.32526184
H        1.58664241       1.22834869      -3.32327626       0.56824619      -0.29655424       0.63044622
H        0.84771036       2.35633602      -4.41782901      -0.28407169      -0.42622774       0.45343055
H        0.47641566       0.66647457      -4.55152747      -0.17896420      -0.64362483      -0.23690217
H       -0.31611870       2.50300064      -2.25027058      -0.63824990      -0.53791212      -0.22918044
45
Properties=species:S:1:pos:R:3:MACE_forces:R:3 smiles="[H:32][c:16]1[c:17]([c:21]([c:18]([c:19]2[c:20]1[C:11](=[N:6][S:7]2)[C:8](=[O:1])[N:25]3[C:27]([C:9](=[O:2])[N:24]([C:28]([C:29]3([H:44])[H:45])([H:42])[H:43])[C:26]([H:37])([H:38])[H:39])([H:40])[H:41])[H:34])[N:23]([H:36])[C:15]4=[C:14]5[C:10](=[N:5][C:12](=[C:13]([N:22]5[H:35])[H:31])[H:30])[N:3]=[N:4]4)[H:33]" total_charge=0 config_type=PubChem MACE_energy=-45798.81905672305 pbc="F F F"
O       -1.82597229      -0.20700714       0.53451740       2.18356712      -0.33430147       1.57599070
O       -3.81589267      -4.11588762       2.69894221       0.75068918       1.04079739       0.64377393
N        3.85073306       5.68997433      -4.12630222       1.41930009       0.59419504      -2.60847745
N        3.37780144       5.98683597      -2.98573682      -1.03428128      -1.16145931       1.55353591
N        4.22394492       3.55404879      -5.31665943      -0.26766719       0.28790064       0.62459728
N        1.53280380      -0.53287492       1.70060303      -0.98155049       0.37652091      -0.15510761
S        2.99375441       0.32020912       1.38311853      -2.69449448      -0.13168691      -0.02703432
C       -0.96820495      -0.53816554       1.39235827      -2.67204973      -0.50817711      -0.32906898
C       -3.01622865      -3.27780578       3.11277963       0.38624408      -0.96326844       0.41647165
C        3.83735039       4.33870580      -4.30591915       0.30767400      -2.45168211      -1.01852044
C        0.42781018       0.09887951       1.30707898       1.74351965      -0.68736556       0.37117160
C        4.04940345       2.18368580      -5.17573593      -0.07605797       1.23088445      -0.21206005
C        3.46415140       1.62349131      -4.06536338      -0.44577515      -0.45219359       1.30250822
C        3.26879170       3.75100019      -3.12207506      -0.87907500      -0.40042365       1.33164640
C        2.97516276       4.82121803      -2.34007404      -0.26619734       0.13480511       1.04915527
C       -0.13338289       2.37092258       0.09566530      -0.50012598       0.00607530       0.13353060
C        0.38067057       3.52020147      -0.46835951       0.06856638      -0.15714798      -0.22856907
C        2.61700894       2.75186421       0.09889945       0.51026784       1.17250587      -0.49415597
C        2.06415786       1.62738767       0.67226021       1.26628846      -0.26060223      -0.11318560
C        0.69817510       1.39643826       0.66593727      -0.63421236      -0.50404587       0.24204550
C        1.77215209       3.69974257      -0.51141605       0.79975593      -0.52905433       0.84763101
N        3.06297090       2.39320984      -2.98799059       0.46003189      -0.47613755      -1.53999809
N        2.38534584       4.82843782      -1.06223652       0.03872126       1.87838267      -0.14866007
N       -2.30265234      -3.44972560       4.29848720       0.48040792       1.74669147      -0.35891939
N       -1.37933323      -1.44867799       2.39179113       1.62008532       0.47931238      -0.04936761
C       -2.60639713      -4.53264520       5.18868734      -1.81921606      -1.54468585      -0.05003613
C       -2.74863813      -1.99014375       2.30543401       0.02384405      -0.09192905      -0.55651885
C       -1.36707554      -2.38102815       4.72406580      -0.80542426       0.60771307      -1.03131109
C       -0.51536916      -1.94096277       3.52986099      -0.30645263       1.30445106      -0.53361654
H        4.33477428       1.53993978      -6.03148219      -0.14649973       0.67438845       0.77495762
H        3.31862475       0.52883770      -3.98213527       0.04401431       0.97915442       0.00121709
H       -1.20079026       2.22693862       0.09231916      -0.05443339      -0.17907775       0.02892428
H       -0.28101228       4.26011517      -0.92874501       0.31047920      -0.30950348       0.23566125
H        3.71231844       2.94189980       0.14690428      -1.03889424      -0.12377498      -0.16699767
H        2.57274010       1.99438979      -2.16574452       0.67474988       0.46414398      -0.99915963
H        2.06688823       5.75360586      -0.74790702       0.10783173      -0.89522905      -0.41202487
H       -2.36708019      -5.47285602       4.63353826      -0.41763667       0.47583619       0.76435732
H       -2.07923768      -4.54011914       6.15775062       0.08245122       0.46950819      -0.77403864
H       -3.72856758      -4.52982709       5.44032575       1.58707585      -0.17783838      -0.44418997
H       -3.44594452      -1.21913717       2.65357067      -0.06203178      -0.20191338      -0.09907723
H       -3.01412317      -2.22569225       1.25018897       0.27879787       0.23807882       0.88557102
H       -0.71590278      -2.68176339       5.53727104      -0.04273318      -0.49952651      -0.12695247
H       -1.91166041      -1.49158905       5.10853864       0.12429027      -0.47460567      -0.24024925
H        0.10782167      -1.09382961       3.85469558      -0.13034714      -0.40103761      -0.19853984
H        0.14108338      -2.71926782       3.16126802       0.00650255      -0.24467759       0.13309019
26
Properties=species:S:1:pos:R:3:MACE_forces:R:3 smiles="[H:6][C:3]([H:7])([H:8])[O:1][C:5]([H:12])([H:13])[O:2][C:4]([H:9])([H:10])[H:11].[H:19][C:16]([H:20])([H:21])[O:14][C:18]([H:25])([H:26])[O:15][C:17]([H:22])([H:23])[H:24]" total_charge=0 config_type="DES370K Dimers" MACE_energy=-14678.523176265535 pbc="F F F"
O       13.03697967     -11.45197009      -8.69005966       0.90815191       0.61754326      -0.18622142
O       12.19836044     -12.85595035     -10.16594982      -0.66337463      -1.23539212      -1.47635684
C       12.11289024     -11.64996051      -7.65236950      -0.05047184       1.29479844       1.14984795
C       12.14643001     -12.13059997     -11.36812019      -0.04562701       0.39699099      -0.74239466
C       13.29823016     -12.60257911      -9.40781020       0.01365967      -1.00947087       1.63463310
H       11.12002944     -12.07702064      -7.87249994       0.59730234       0.06842089      -0.54873243
H       11.98145961     -10.60549926      -7.32307004      -0.36057087      -0.62503014       0.36337709
H       12.56791972     -12.22417926      -6.82785988      -0.12517248       0.06446034      -0.25634704
H       13.16452979     -12.02195072     -11.77832984      -0.35017967       0.03138574      -0.01653881
H       11.71401023     -11.12545966     -11.22913932       0.18723635      -0.33696517       0.02424526
H       11.52974986     -12.68097972     -12.09846019       0.25844763       0.18981502       0.43745812
H       14.26360034     -12.57843017      -9.94903945      -0.58345947       0.54468939       0.02661507
H       13.34556007     -13.42813968      -8.67183971       0.21405807      -0.00124580      -0.40958539
O       13.36913013      -6.05342960      -3.37164020       1.13959813      -0.52367968      -0.99353240
O       13.91450976      -4.17976999      -1.96311998       0.52577858      -0.39512360       0.02596334
C       14.68121051      -6.72312975      -3.51894998      -0.34401649       1.15876510       0.52681646
C       13.25077056      -3.05671978      -2.51976013      -0.51028784      -0.00776832      -0.54733459
C       13.18686007      -5.37069034      -2.16755009      -0.69471701      -0.41727988       0.69863740
H       14.88098048      -7.41910982      -2.68689990      -0.29894466       0.27344138      -0.19729962
H       15.44391059      -5.92650985      -3.50211000      -0.15083666      -0.47221606      -0.02543998
H       14.77077960      -7.27592993      -4.46922016      -0.62574349       0.46705417       0.43513270
H       12.23898029      -3.00148010      -2.08405995       0.24292338       0.17207171      -0.18855352
H       13.15722942      -3.19350981      -3.61023998      -0.03314444       0.21180769       0.33524157
H       13.76894950      -2.10207009      -2.32809997       0.07950781      -0.77770592       0.14458272
H       12.12236976      -5.07489013      -2.09816003       0.30191886      -0.53615415      -0.35374253
H       13.38000106      -6.12072992      -1.37660992       0.36796385       0.84678755       0.13952843
49
Properties=species:S:1:pos:R:3:MACE_forces:R:3 smiles="[H:27][c:5]1[c:9]([c:15]([c:10]([c:14]([c:8]1[H:30])[O:3][c:13]2[c:6]([c:11]([c:16]([c:12]([c:7]2[H:29])[H:34])[N:18]3[C@:25]([C:24]([C:22]([C:21]3([H:41])[H:42])([H:43])[H:44])([H:47])[H:48])([H:49])[C:23]([H:45])([H:46])[C:4](=[O:1])[O:2][H:26])[H:33])[H:28])[H:32])[N:17]([C:19]([H:35])([H:36])[H:37])[C:20]([H:38])([H:39])[H:40])[H:31]" total_charge=0 config_type=PubChem MACE_energy=-30270.099980483286 pbc="F F F"
O        7.47150613       0.65951777       1.94703342      -1.17280551       1.25816633      -0.44707777
O        6.09196188       2.47213830       1.74531188      -0.09725701       0.12362355       0.27944186
O       -0.99789021       1.77559140       1.70741536      -1.67508969       0.14937516       0.40280979
C        6.53089477       1.23799779       1.42436316       0.64744452      -1.15361979      -0.34776702
C       -2.89497612       3.38620068      -0.94108269       1.37125057       0.20335133      -1.40554332
C        0.12910949       0.20146953       0.20491471       0.00674958       1.19509638       1.05874929
C        1.32536759       1.50975897       1.82512226      -3.71725122       5.35513423       4.24148778
C       -1.80327127       2.94862582      -0.17090366      -3.34996077       0.25496322      -1.06863164
C       -4.12829063       2.74372389      -0.84872434       0.59564270       3.53080150      -3.14192883
C       -3.30137918       1.49620153       0.95470252      -0.14285216      -1.64653984       1.21338375
C        1.38445791      -0.35686538      -0.13254110      -0.83105306      -0.18248083       0.86029424
C        2.44653108       0.95195299       1.56952538       3.87642311      -3.90102294      -2.63447117
C        0.11464842       1.14750900       1.29316726       0.19664268      -1.80717177      -3.14616596
C       -2.03430650       2.01103260       0.78908756       0.27297330      -0.14843400       1.40437555
C       -4.32008407       1.83524992       0.07853016      -1.21027556      -2.48097335       1.71625530
C        2.51823976      -0.08748785       0.64810821      -0.11747096      -0.73478547      -0.81574706
N       -5.58547971       1.20867344       0.15904262       0.21139803       0.84032060       0.30887787
N        3.69622900      -0.82268713       0.52952846      -1.61585126      -1.87015412      -2.13219800
C       -6.04762599       0.21714579      -0.79229531       0.55543735      -0.41374251       0.09567363
C       -6.41642282       1.53906956       1.29156794      -1.91256869       3.77018202      -2.97343828
C        3.67027523      -2.19075224      -0.02262572       2.41223161       0.07882916       2.15451788
C        5.18427803      -2.68125985       0.07550060      -1.78661724      -1.65541873      -1.40007122
C        5.62578966       0.51705309       0.35745152       1.49203708       2.01131064       2.48633661
C        5.66533996      -1.88173292       1.22260024       2.97683958       0.28666370       1.54119113
C        4.93153860      -0.54564688       1.16197719      -1.00376146      -0.89153584       1.61184456
H        6.52074529       2.86897137       2.52968814       0.12120161      -0.70172189      -0.60690213
H       -2.71349905       4.14979841      -1.75316832      -0.29270733      -0.90372457       1.15261381
H       -0.83575270       0.00806566      -0.34108434       1.40266299       0.00329581       0.57005120
H        1.37678661       2.38306095       2.60215857      -0.59594714      -1.63093766      -1.46428332
H       -0.87233112       3.32507875      -0.30291710       2.58855606       1.19869149      -0.31564331
H       -4.94000003       3.04051616      -1.53148792       0.44265928      -0.23615690       0.48488250
H       -3.57578418       0.73021423       1.71207371       0.67348549       0.72173113      -0.47533117
H        1.44216897      -1.10839472      -0.88769315      -0.05173405      -0.25099354      -0.44137618
H        3.40424277       1.08895268       1.92533448       1.26942805       1.48547243       1.64907316
H       -5.17336128      -0.23630551      -1.33097408      -0.76069711       0.34525522       0.65005770
H       -6.78822562       0.50037326      -1.60236261       0.57054279       0.15864847       1.11141305
H       -6.46670530      -0.50930951      -0.08587942      -0.36191372      -0.60105182      -1.01497387
H       -7.49032256       1.57257988       0.93775406       0.92695973       0.08630404       0.28596971
H       -6.24881932       2.57119514       1.75081446       0.20412606      -1.27097231      -0.97803277
H       -6.43017004       0.89702295       2.04973724       0.40144737      -3.06929667       3.22238740
H        3.06454470      -2.82145021       0.60529388      -0.47465402      -0.34152041       0.16593230
H        3.41909911      -2.31328270      -1.00779758      -1.19987351       0.25279901      -2.38220600
H        5.15987017      -3.80465600       0.22150635       0.20963081       1.32281880       0.15085201
H        5.70733120      -2.56778357      -0.90711961      -0.32737999       0.44328323       0.94182216
H        4.88410809       1.19615587      -0.04612092       0.23863223       0.04940403      -0.25487752
H        6.30908491       0.08964961      -0.35101793      -0.04236098      -0.16926802      -0.56775995
H        5.46033814      -2.40030525       2.19689491       0.00011020       0.49410730      -0.94397821
H        6.80246879      -1.66870973       1.23732605      -1.82755088      -0.45741902      -0.06829572
H        4.65742304      -0.35423420       2.23194709       0.90312055       0.89931324      -0.73359381
15
Properties=species:S:1:pos:R:3:MACE_forces:R:3 smiles="[H:9][c:3]1[c:5]([c:8]([c:6]([c:4]([c:7]1[F:1])[H:10])[H:12])[F:2])[H:11].[H:14][O:13][H:15]" total_charge=0 config_type="DES370K Dimers" MACE_energy=-13808.825351006359 pbc="F F F"
F       -1.27560997      -2.49845004       4.86157989       0.43072007       0.33311197      -1.05017472
F        0.00000000       0.00000000       0.00000000       0.30769233      -0.12593436      -0.62759328
C       -1.28820002      -0.56108004       3.42501998       0.36937469      -1.28700056      -0.32461426
C       -0.27478000      -2.60010004       2.64171004      -0.82346978      -0.07211995       1.33890788
C       -1.00061000       0.03383000       2.16609001      -0.47698920       0.21353163       0.51691361
C        0.06675000      -1.93358004       1.46796000       0.67402648      -0.37967900      -2.15838938
C       -0.90555000      -1.90613007       3.68761992      -0.20473904       1.33133922      -1.41187116
C       -0.25536001      -0.61436999       1.13371003      -1.78938213      -0.50826592       4.43177659
H       -1.90738010      -0.07093000       4.18789005       0.42930052       0.04009129      -0.58456770
H       -0.20655000      -3.69154978       2.74017000       0.48805721       0.62805488      -0.17834896
H       -1.50717008       1.00141001       2.05302000       0.71883398      -0.28690336      -0.40605723
H        0.54038000      -2.51572990       0.66646999      -0.12179411       0.11304615       0.45389555
O        4.94011021      -4.68013000       0.55093002      -0.41971670       0.35905469       1.28254708
H        4.58265018      -5.26916980       1.25341999       0.43298898       0.75988092      -0.83006823
H        4.93658018      -3.78259992       0.95429003      -0.01490330      -1.11820761      -0.45235579
31
Properties=species:S:1:pos:R:3:MACE_forces:R:3 smiles="[H:22][C:8]([H:23])([C:12]([H:30])([C:10]([H:26])([H:27])[S:3][C:7]([H:20])([H:21])[S:4][C:11]([H:28])([H:29])[C:13]([H:31])([C:9]([H:24])([H:25])[O:2][H:15])[N:6]([H:18])[H:19])[N:5]([H:16])[H:17])[O:1][H:14]" total_charge=0 config_type=PubChem MACE_energy=-36310.03718714138 pbc="F F F"
O       -1.07670078       4.58203127       4.31781389       0.29861114      -0.56245621       0.32880283
O        4.07645705      -1.15702448      -3.77988861       0.44798426      -0.44332579      -0.02304084
S       -0.95124195       0.98473187       1.32569327       0.87456387      -0.26833259       0.02826941
S        0.32317862      -0.22083400      -1.11974285      -0.07076345       0.33369016       0.17179656
N       -2.61773250       3.10402276       2.81446125       0.41300691      -0.42877517      -0.29318531
N        1.12246158      -2.82088754      -2.31964586       0.04303110      -0.42145937      -1.39806838
C        0.66131850       0.53758725       0.50282556       0.20298804       0.51247399       0.45784600
C       -1.28229365       3.25591066       4.84877827      -0.25156659       0.50074680      -1.11870467
C        3.36087706      -2.25233648      -3.15559242       0.51162209       0.32863250      -0.76910471
C       -0.40519349       1.92588558       2.81913330       0.40013231       1.23717579      -0.29504135
C        2.01746478      -0.67954061      -1.62087700       1.01434713       0.93469461      -0.09650521
C       -1.64663289       2.34318282       3.63720800      -0.54314984      -0.49024413       0.55164646
C        1.98365428      -1.72731373      -2.76231882      -0.29397174      -0.37381709       1.27267169
H       -1.53486178       4.58031513       3.45566871       0.13511409       0.02329288       0.39845278
H        4.96968414      -1.43604419      -4.06978891      -1.06340464       0.07039200       0.41274590
H       -2.88644574       2.54096129       2.00355985      -0.03556666       0.47930291       0.41217597
H       -3.43908522       3.32219245       3.37110092       0.09680367      -0.20619479      -0.22745675
H        0.19702347      -2.45173214      -2.15461991       0.13761281      -0.45296856       0.35067827
H        1.47612699      -3.35402820      -1.54121993      -0.07116492       0.29476378       0.15580025
H        1.22800877       1.47970410       0.37273259      -0.25801292      -0.57748386       0.05448986
H        1.25431832      -0.17400847       1.11297448      -0.49715250       0.45890852      -0.23595884
H       -2.14593146       3.30444910       5.55197098       0.68620140      -0.30328479      -0.24343362
H       -0.35794286       2.88615658       5.33971788      -0.67529136       0.37215036      -0.14714079
H        3.24117948      -3.08382389      -3.88628623      -0.02496240       0.45491021       0.60637314
H        3.93636372      -2.59185980      -2.29020450      -0.20272040      -0.15858048       0.06991837
H        0.29712334       1.33316710       3.43269636      -0.52876447       0.18342556      -0.31326440
H        0.11385410       2.88884856       2.53067901      -0.44549287      -1.15202689       0.06249829
H        2.53009751      -1.08673272      -0.72002420      -0.24808536       0.10770307      -0.69654175
H        2.55726649       0.23508095      -1.95604608      -0.32651261      -0.62502394       0.35520813
H       -2.15373394       1.44292649       4.01298811       0.39472338      -0.00708890       0.09378459
H        1.55583145      -1.30649445      -3.66925475      -0.12015945       0.17879943       0.07428812
34
Properties=species:S:1:pos:R:3:MACE_forces:R:3 smiles="[H:29][c:14]1[c:15]([c:18]([c:13]([n:4][c:12]1[H:27])[H:28])[C:6]2=[N:2][N:23]([C:11](=[c:22]3[c:20]([c:17]([c:16]([c:19]([c:21]3=[N:3]2)[H:32])[H:31])[Cl:1])[H:33])[C:10]4=[C:9]([C:8](=[C:7]([S:5]4)[H:24])[H:25])[H:26])[H:34])[H:30]" total_charge=0 config_type=PubChem MACE_energy=-47140.69943313297 pbc="F F F"
Cl       2.71960236       3.45357134       4.63426639      -0.51022367      -0.43989601      -1.51111069
N       -0.24999318      -0.75268290      -0.34109119      -1.03636061       1.82697362      -1.16303670
N       -0.68185458       1.58124699       0.26020643      -2.37082537      -1.53403868      -2.60761107
N       -2.26108739      -0.41762243      -3.87556932       0.24849564      -1.11227564       1.94469595
S        4.23525907      -0.83502433       1.23573257      -1.19167210      -0.19693953       1.22185814
C       -0.73452363       0.45580996      -0.55767927       2.28353727      -1.02840446       2.66369492
C        4.75152638      -1.92236564       2.51016881      -1.55546447       0.90304870      -0.17904685
C        3.69914796      -2.43840096       3.17662217      -1.56145300      -1.79232874       0.49216559
C        2.41638400      -2.14360425       2.60581162       1.30153502       1.86337440      -0.34071641
C        2.53188159      -1.10663305       1.69612565       1.27697267      -1.29701910       1.01267403
C        1.36041512      -0.33864710       1.41344252      -1.55011618       1.72088337      -1.50311022
C       -2.99844954       0.67998856      -4.00350950      -1.09529580       0.09549424      -0.95173676
C       -1.52184103      -0.53221796      -2.74556015      -0.73404396       2.84452777       0.12735585
C       -2.81860087       1.84588768      -3.29527042       2.13318750      -1.86211465       1.26711478
C       -1.91786263       1.84312370      -2.20443509      -0.92677749      -0.47893620      -1.23885205
C        0.95443269       3.69859244       2.50865283      -0.83921809       0.62864523      -0.49515608
C        1.86746182       2.89390971       3.12522127       1.61217495      -2.31486839       1.32646305
C       -1.37324212       0.59716805      -1.82791254      -1.23440590       0.13140735      -2.54572932
C        0.09720360       3.13314773       1.61241259      -1.35828235       5.82845694       1.08377504
C        1.99964036       1.57592144       2.68168833       3.08248989       1.62719425       3.00818998
C        0.14493590       1.86073925       1.21575596       0.10473273      -3.42583538      -1.61828422
C        1.18565680       1.03950181       1.70955267       1.20939982      -1.51419764      -0.50606926
N        0.28212527      -0.99016295       0.91574060       0.11254901      -2.97027945       1.74012675
H        5.72275974      -1.91447422       2.89022710       1.48002567      -0.18024151      -0.07984014
H        3.65736701      -3.07436846       4.08196547       0.85605176       0.43673797      -0.72441224
H        1.45844015      -2.41510651       2.99880006      -0.11251992      -0.27505140       0.35561760
H       -3.87209318       0.64542972      -4.70511672       1.28149773      -0.08189356       0.17802710
H       -1.02822397      -1.44958327      -2.47608206       0.03315972      -0.13902777      -0.40245360
H       -3.25183103       2.69774582      -3.67065761      -1.12938128       1.90339504      -0.31981522
H       -1.76518629       2.80996778      -1.73180650       0.29125269      -0.66514226       0.45858829
H        0.94004735       4.74718764       2.70966604      -0.27932672       0.42654990       0.24464896
H       -0.70339642       3.79824116       1.16119447       1.21088560      -1.13136099       0.48840803
H        2.81477263       0.99900519       3.20743849      -1.25043048       0.39334851      -0.80119795
H        0.33115055      -2.03326676       1.07602378       0.21784973       1.80981406      -0.62522528
48
Properties=species:S:1:pos:R:3:MACE_forces:R:3 smiles="[H:35][c:17]1[c:15]([c:19]([c:16]([c:18]([c:20]1[C:26]([H:43])([C:10]2=[N:6][N:21]3[C:13](=[C:11]2[H:31])[N:5]=[C:9]([C:12](=[C:14]3[N:22]4[C@:29]([C:28]([C:27]4([H:44])[H:45])([H:46])[H:47])([H:48])[C:8](=[O:1])[O:7][H:30])[H:32])[C:23]([H:37])([H:38])[H:39])[C:25]([H:40])([H:41])[H:42])[H:36])[H:34])[C:24]([F:2])([F:3])[F:4])[H:33]" total_charge=0 config_type=PubChem MACE_energy=-39279.453143289255 pbc="F F F"
O        3.53091933      -2.79658196      -2.06133363       0.96483209      -0.05041044       0.43354790
F       -5.64151618      -0.25726161      -1.85393212       0.22193463       0.93375732      -0.66592701
F       -3.83954379       0.17065450      -3.02722165      -0.39461688       0.04428491       0.13009742
F       -4.88123939       1.84390261      -2.11624119      -0.72880515      -0.36016792      -0.44305014
N        3.06433060       2.82229426       2.66527559       1.50418094      -0.01859926      -1.04402947
N        0.90414955       0.30827062       1.43905427      -0.37262137      -0.15697094      -0.58389795
O        5.22070887      -1.40948877      -1.46296964      -1.69415522       0.31039939       0.86921821
C        3.90866711      -1.82645748      -1.44424734      -0.45606002      -0.16521369      -1.34594643
C        4.04166510       2.82803633       1.78361537      -1.03496198      -0.31542551      -1.14820672
C        0.22018757       0.70598472       2.52151134       0.84235694       1.44284600       0.01320370
C        0.96489429       1.74236490       3.19640353      -2.23962439      -1.39870902       0.20077288
C        4.01238968       2.02586796       0.54042984      -0.39722155      -0.39019773       1.15911663
C        2.06930818       1.93760743       2.43426515       0.79944863       0.82073994       0.84875148
C        2.96655419       1.16277643       0.31074300       1.03724277       1.31668977       1.40270667
C       -3.97108648       1.31640824       0.44528694       0.40577947      -1.55907442      -0.89323631
C       -2.79004333      -0.57718084      -0.54362986       0.93398593      -0.78004794      -0.31301261
C       -3.18810198       1.17789515       1.60259702      -0.75346019       0.73436837      -0.28977164
C       -1.95367143      -0.64422033       0.58123101      -0.37027448       0.52321678       0.38240175
C       -3.75230119       0.42791174      -0.65042064       0.34340416       0.35048982       0.65756297
C       -2.14920566       0.25528314       1.65534868       0.55167603      -0.18924595      -0.33058809
N        2.03256848       1.08282842       1.37683632      -0.52651101      -0.82141598      -1.15675130
N        2.86078002       0.46017985      -0.88315127       1.13985162       0.51127140       1.44807188
C        5.10095598       3.86232712       1.89789643       0.63940678       0.10534972      -0.54355207
C       -4.54591224       0.55609353      -1.95043228       0.75472654      -0.51413585       1.70707367
C       -1.17665479      -1.18167219       3.45668080       1.06515420      -0.07442182      -0.38764585
C       -1.20909379       0.23761033       2.86469581       0.43405581      -0.51191066      -0.57306099
C        1.65392187       0.62635894      -1.65959785      -1.58367967      -0.07449668      -0.82405781
C        1.50977185      -0.89850292      -1.65260027      -0.97488861      -0.53281757      -1.21715839
C        2.77637174      -1.00811777      -0.79909132       0.19836969       0.33123782      -0.02409960
H        5.70414545      -2.03776810      -2.00199649      -0.00167685      -0.32032147      -0.17912128
H        0.68177954       2.24313833       4.11255004       0.21278355       0.00455293      -0.29872092
H        4.86016800       2.02953722      -0.15489683      -0.69260434       0.22996473       0.28749249
H       -4.78861663       2.01561501       0.35654569       0.17729879       0.20608498       0.20882419
H       -2.60414694      -1.33350382      -1.35950801      -0.41873029       1.16703226       0.86741341
H       -3.41431234       1.85219397       2.45659687       0.41355125      -0.61079613      -0.68333028
H       -1.12455664      -1.36580083       0.65089532      -0.67593288       0.44336592      -0.22272921
H        4.66425135       4.84285309       1.69977381       0.04973431      -0.05709353       0.06759562
H        5.53555204       3.87242224       2.87789061       0.10419093       0.07771146       0.56053248
H        5.91432573       3.69862892       1.17388656      -0.38930572       0.03848676       0.24794669
H       -2.17001865      -1.49792693       3.73200610      -0.16909171      -0.12193093       0.29987839
H       -0.46865491      -1.17920730       4.28956296      -0.40558764      -0.18386100       0.15319690
H       -0.76451371      -1.91403053       2.72827985      -0.35014576       0.58260053       0.37698671
H       -1.61654208       0.94177335       3.60492040       0.28784977      -0.25561219      -0.19078619
H        1.75805773       1.07727995      -2.65889523       0.50557259      -0.12894780       0.39629908
H        0.80711394       1.16849747      -1.19370685       0.64197642      -0.39240346       0.19225388
H        1.53362241      -1.36093710      -2.64574168       0.09998994      -0.03390347       0.46256221
H        0.61576711      -1.20154546      -1.12902592      -0.02820578      -0.26601513       0.09284325
H        2.53731062      -1.40188585       0.19436659       0.32880773       0.10969567      -0.10767017
39
Properties=species:S:1:pos:R:3:MACE_forces:R:3 smiles="[H:26][c:13]1[c:17]2[c:18]([c:14]([c:16]3[c:15]1[O:5][C:22]([O:6]3)([H:34])[H:35])[H:27])[C:24]([N:19]4[C:11](=[C:9]([C:10](=[C:12]4[C:23]2([H:36])[H:37])[C:8](=[O:2])[O:4][C:21]([H:31])([H:32])[H:33])[C:7](=[O:1])[O:3][C:20]([H:28])([H:29])[H:30])[H:25])([H:38])[H:39]" total_charge=0 config_type=PubChem MACE_energy=-31664.57194282253 pbc="F F F"
O       -0.92647908      -3.10148284       3.01311423      -0.33872090      -1.91913150       0.94534598
O       -1.62679861      -0.63544021      -1.52644775       1.10768829      -1.54037844       0.66742061
O       -2.55681536      -2.83183715       1.38547852       2.11088088       0.81951390       1.07775579
O       -0.71336505      -2.69780586      -0.88525293      -0.09106486       1.44170536       0.16603746
O        4.08573868       5.07115509      -0.86201833       0.12844410      -0.13064657      -3.15593905
O        3.94656064       5.57271435       1.35127547       0.67706666       0.18650245      -0.94308071
C       -1.40793894      -2.45797989       2.14028349      -1.07710139      -0.44598605      -0.16723818
C       -1.02506373      -1.31705890      -0.70644066      -1.02594829      -0.62504789      -1.69036267
C       -0.75278375      -1.21301994       1.84916927      -2.33006737      -1.62120833      -2.47656526
C       -0.60309491      -0.71249447       0.57279400       0.36881868      -0.70328216      -2.95182629
C       -0.23037020      -0.35085407       2.67459657       1.06518323       3.02769092       1.00054212
C        0.10216316       0.45079162       0.61995039      -0.04432975       0.51588863      -0.58093352
C        2.31000235       3.25413324      -0.79847107      -0.30416027      -1.04230178      -0.80511859
C        2.33377673       3.81743528       1.87571695       1.26826207      -0.55496520      -3.24029828
C        3.13350823       4.28018071      -0.31515113      -0.47398928      -1.78987464      -1.68973157
C        3.18331458       4.53703072       0.97127109      -3.84075620      -1.93329254       5.78043646
C        1.55564060       2.40538575       0.08581039       0.95975348       1.21558941       0.09224829
C        1.60085859       2.67689445       1.48902484       0.49369934       1.96765583      -2.45892534
N        0.19429716       0.75653418       1.95116403       1.24120771      -0.68993724       0.33256133
C       -2.61426589      -4.23741052       1.19908937      -1.29579111      -0.16850519      -1.23042648
C       -1.10924432      -3.37615750      -2.12011669      -1.29581906       0.46491441       0.64878043
C        4.55872967       5.92070057       0.09197088       1.86910993       2.40561099       1.31167385
C        0.79713892       1.21262958      -0.49535558      -0.53516838       1.07705172       0.68441295
C        0.73205607       2.00532426       2.47204043      -1.25396242      -0.05896902       0.09517241
H       -0.04270444      -0.49796090       3.67738702       0.05667574       0.32655623       1.96726945
H        2.24494996       3.00868823      -1.89100048       0.27777884       0.42651297       1.19152238
H        2.33337833       4.16835095       2.82467510      -0.09584945       0.70181722       2.97417374
H       -3.33965013      -4.45786474       0.39779929       0.24906320       0.50653138       0.25214313
H       -2.94097612      -4.81292198       2.02545287      -0.22289585      -0.09932566       1.24307818
H       -1.68424676      -4.61547992       0.87700545       1.20183211      -0.30918544      -0.30064338
H       -0.23399684      -3.62643239      -2.72642252      -0.16819076       0.62707555       0.05254468
H       -1.59361289      -4.36238334      -1.88952014       0.38956529       1.06090061       0.27477035
H       -1.87485120      -2.70658157      -2.58146904       0.89518659      -0.74853173      -0.21594642
H        4.38564589       6.99272634      -0.12118755      -0.65954550      -0.48249171      -0.08507009
H        5.66208841       5.88853027       0.18940120      -0.43582034      -0.66540568      -0.03978146
H        0.03949430       1.51865186      -1.23357461       0.25193550       0.09649169       0.30820581
H        1.52350517       0.63396333      -1.06776653      -0.20930462      -0.48893434       0.35471752
H       -0.12910537       2.65370157       2.78825047       0.76316989      -0.44209905      -0.35864565
H        1.32042673       1.82355644       3.33538534       0.32316424      -0.40850911       0.96972002
49
Properties=species:S:1:pos:R:3:MACE_forces:R:3 smiles="[H:32][c:11]1[c:13]([c:19]([c:14]([c:17]([c:12]1[H:33])[O:4][H:30])[H:35])/[C:9](=[C:8]2/[C:6](=[O:1])[N:25]([C:7](=[N:2]2)[C:28]([H:44])([H:45])[H:46])[N:26]([H:40])[c:22]3[c:16]([c:10]([n:3][c:23]4[c:24]3[c:21]([c:18]([c:15]([c:20]4[H:38])[H:36])[O:5][C:27]([H:41])([H:42])[H:43])[H:39])[C:29]([H:47])([H:48])[H:49])[H:37])/[H:31])[H:34]" total_charge=0 config_type=PubChem MACE_energy=-35263.63229806364 pbc="F F F"
O        2.77343299       1.50339963       1.47210338      -0.97899985       0.01395899      -1.95357524
N        1.64325084       1.09731611      -1.85485647      -0.90416273      -1.22586944       1.15329971
N       -2.72655914       0.71119756       3.68371131      -0.13520451       1.53584497      -0.58126697
O        4.12514093       2.37826087      -5.98668525       0.06012796      -0.61786511      -0.14582547
O       -0.70974753      -4.45054338       3.95827820      -0.40295096      -0.25044488       0.06337505
C        2.18586375       1.31195673       0.39376688       1.17996956      -0.07679496       4.73590982
C        0.92316075       0.28091455      -1.12770221      -0.11977863       0.08769592      -1.37435659
C        2.41627600       1.79681601      -0.92214272       1.27232651       1.73685352      -1.80563240
C        3.25002672       2.83213880      -1.18214593      -0.55769293      -1.04080716       0.06465371
C       -2.22254608       1.58724739       2.79992153      -1.51385782      -1.65448610       1.26254219
C        4.56737901       5.24156143      -3.73528621       0.12456911      -0.22847913       0.28717515
C        4.55263187       4.50506808      -4.92230127      -0.80472085      -1.10643204       0.59393223
C        4.12539007       4.66679337      -2.54548881       0.00957035      -0.13001016       0.25881816
C        3.57913114       2.63096740      -3.67313192       0.67304658       1.01050242      -0.56230318
C       -2.25862978      -2.73770282       4.81640627      -0.24046445       0.88197238       0.67882855
C       -1.19827399       1.26664158       1.93608072       1.19234556      -1.68888821      -0.56511543
C        4.07531955       3.15772249      -4.87434814       0.17838520       1.12980485       0.95222300
C       -1.22673152      -3.16290829       3.96452620       0.51724479      -0.89610459      -0.59937728
C        3.60447051       3.35660841      -2.49330328       0.70515627       1.39288877      -0.02990676
C       -2.71957610      -1.43269179       4.71098234      -1.11353441      -0.88060620       0.57179370
C       -0.67200492      -2.30348775       3.02823760       0.26053475      -0.82335525       0.01180704
C       -0.60921762      -0.00838087       2.01078393      -0.00207094       1.44428788      -0.08237268
C       -2.23455093      -0.53684185       3.74292948       1.10604631      -0.20515038      -0.21330296
C       -1.15407357      -0.99029527       2.92777397       0.22869883       1.07517547      -0.64852520
N        1.13803037       0.42585998       0.26046144      -1.60860555      -1.33986578       0.42942119
N        0.53918544      -0.36098132       1.28863182       0.87640694      -0.50013323      -0.71346886
C       -1.41621873      -5.50212524       4.64702751      -0.15285295       0.74739172      -0.28649195
C       -0.07193039      -0.67571542      -1.72959969      -0.18104201       0.89077391       0.70853974
C       -2.83375928       2.93921783       2.72448589      -0.92574049       0.22787851       0.85736080
H        4.03117229       1.43939670      -5.73207090      -0.03901852       0.92425405      -0.17989352
H        3.71247174       3.27288844      -0.31077055       0.03445704       0.14686976      -0.03339018
H        5.00149729       6.24979689      -3.67593381      -0.36092736      -0.53934338      -0.33939625
H        4.85295965       4.95544340      -5.84880826       0.22226491      -0.11457700      -0.24049097
H        4.20997908       5.21868326      -1.60917423      -0.05713399      -0.06232070      -0.31493130
H        3.24588039       1.64090707      -3.63988445      -0.52773313      -1.31249634      -0.10400906
H       -2.64473412      -3.35139630       5.64350321       0.20369173       0.15578536      -0.76213242
H       -0.90801380       2.02631130       1.22701230       0.47491261      -0.18429912      -0.06774872
H       -3.57141159      -1.11559138       5.34854986       0.88290611      -0.09407703      -0.49074402
H        0.11130234      -2.70982478       2.35393717      -0.74281786       0.39578183       0.63599585
H        1.16591920      -0.99664436       1.80789580      -0.29953847       0.91049540      -0.93518788
H       -1.41726623      -5.28776643       5.69723322      -0.24894409       0.08265138       0.64162238
H       -2.43352625      -5.65730140       4.27690222       0.02958753       0.41624749       0.00375281
H       -0.91917394      -6.44960401       4.52593853       0.63004992       0.02263023      -0.38479871
H        0.26055732      -1.02954647      -2.70126436       0.03402833       0.23459499       0.04943223
H       -1.02931092      -0.11919722      -1.82722423       0.48917401      -0.57136244      -0.02690882
H       -0.20443902      -1.51199148      -1.05991540      -0.23300763      -0.21702456       0.11002974
H       -3.88277671       2.90711739       3.10598471       0.98317764       0.09282936      -0.13503970
H       -2.86657927       3.28633739       1.70594980       0.10658506       0.21100863      -0.34589547
H       -2.22969434       3.63365128       3.32270505      -0.32446348      -0.00738458      -0.14842504
31
Properties=species:S:1:pos:R:3:MACE_forces:R:3 smiles="[H:20][C:7]1([C:2](=[O:1])[C:8]([C:13]2([C:11]([C:9]([C:10]([C:12]1([N:4]2[N:3]([C:5]([H:14])([H:15])[H:16])[C:6]([H:17])([H:18])[H:19])[H:30])([H:26])[H:27])([H:24])[H:25])([H:28])[H:29])[H:31])([H:22])[H:23])[H:21]" total_charge=0 config_type=PubChem MACE_energy=-15699.501595567472 pbc="F F F"
O        3.75537207       1.92995610       0.06618469      -0.15231576      -0.20213474      -0.05697765
C        2.59908154       1.56611588       0.13987272       1.15049640       0.85490285      -0.41561027
N       -1.27592025       1.12919029       0.18311979      -0.06423770       0.24247060      -1.57201545
N        0.07755276       0.69193978       0.33384101      -2.62674496       0.39772856      -0.06272615
C       -1.58888194       2.58076861       0.22928222       1.86937175      -0.49781190       0.23069812
C       -2.34555624       0.24459719       0.62309254       1.24967831       0.15816886       1.02999332
C        1.93422868       1.00134858      -1.14681409      -0.62453296      -1.35428192       1.47846528
C        1.87701156       1.77839544       1.48231443      -0.09606125      -0.29846072       0.16970247
C        2.03930475      -1.32966159       1.08396735      -0.23124289       0.59113631       0.31017192
C        1.35824659      -1.36717961      -0.30474231      -0.68908275      -0.92866024       0.56015139
C        1.13769587      -0.60543571       2.11608400      -0.23410904      -1.01867231      -0.60736693
C        0.79928955       0.00103666      -0.75526020       0.10263997       0.86111362       0.44631777
C        0.72819047       0.77410554       1.62494733      -0.25104226       0.07570123       0.11770359
H       -1.38627742       2.95128157       1.24839701      -0.13592349       0.30463140      -0.22082774
H       -0.89720545       3.09571459      -0.47711859      -0.54961978      -0.22375899       0.55241899
H       -2.62251732       2.84374525      -0.02817456       0.32651479      -0.59403723      -0.03778632
H       -3.32867000       0.70777822       0.58242967       0.19814843       0.22181109      -0.08013374
H       -2.36339304      -0.63548217       0.00464465      -0.02264717      -0.52174644      -0.11644999
H       -2.12111328      -0.02531455       1.66925313      -0.51646808      -0.32388137      -0.13864413
H        2.65283372       0.50468756      -1.78785465       0.44655237       0.25555225       0.12147186
H        1.46871772       1.79311778      -1.69003580      -0.18268219       0.76556434      -0.25229601
H        2.59000256       1.68208387       2.33519938      -0.24670431       0.17942624      -0.90989072
H        1.43801059       2.80599024       1.53133120       0.47161177      -0.76602963      -0.34287696
H        2.27836969      -2.32859585       1.47792610      -0.08684907       0.25384358      -0.44584604
H        2.98723747      -0.78192482       1.00139501      -0.11218084      -0.19351145       0.04957802
H        0.50606757      -2.09941743      -0.25280033       0.67890366       0.68945498      -0.05877662
H        2.07926395      -1.78563855      -1.01808498      -0.26795316       0.30935881      -0.08236018
H        1.62415781      -0.53182373       3.07485630       0.33616616       0.04196751       0.33767451
H        0.23212241      -1.24297795       2.27673604       0.51898492       0.66248077      -0.17493634
H        0.10654851      -0.13174287      -1.59934376       0.22888800       0.08511676       0.45307287
H        0.06472307       1.18783500       2.37984767      -0.48755886      -0.02744281      -0.28189887
15
Properties=species:S:1:pos:R:3:MACE_forces:R:3 smiles="[H:14][c:8]1[n:3][c:6]([c:7]2[c:9]([n+:11]1[O-:1])[N:10]([C:5](=[N:2]2)[H:13])[H:15])[S:4][H:12]" total_charge=0 config_type=PubChem MACE_energy=-24100.406692824825 pbc="F F F"
O        0.74819747       0.73903736      -2.28475998       0.59300162       0.20783156      -2.42733376
N        1.38742091       0.73791147       2.18573715       0.96964722       0.45589675      -1.39845259
N       -1.73382327       0.10154983       0.20253914       2.39968732       0.20328334       0.02958325
S       -1.48753235      -0.01751015       2.92097642      -0.44780931      -0.29616592       0.22766427
C        2.53928687       0.99294304       1.56150606      -2.67644957      -1.12345714      -0.62356883
C       -0.91626237       0.23629063       1.28636606      -1.06516027      -0.22010643      -0.84261593
C        0.43058739       0.56636052       1.14781823       0.38134481      -0.14462442       1.96241757
C       -1.11875031       0.24327393      -1.01685140      -0.72366640       0.62235984       1.17666003
C        0.97379263       0.68442162      -0.09029505       1.21113504       0.05593217       2.32952269
N        2.32886495       0.91315751       0.16483733       0.33467502       0.46742572      -0.26956287
N        0.19274845       0.56371119      -1.17924438      -0.00079173      -0.30551524       0.41024950
H       -0.26153628      -0.25077520       3.45394995      -0.41480609       0.27589586      -0.33787789
H        3.51315858       1.15041103       2.07899227      -1.01871911      -0.09790372      -0.92706828
H       -1.69637368       0.23646712      -1.96126840       0.51156184      -0.17725112       0.89379034
H        3.03787925       1.04040822      -0.53264544      -0.05365038       0.07639875      -0.20340750
24
Properties=species:S:1:pos:R:3:MACE_forces:R:3 smiles="[H:8][C:3]([H:9])([H:10])[C:1](=[C:2]([C:5]([H:14])([H:15])[H:16])[C:7]([H:20])([H:21])[C:6]([H:17])([H:18])[H:19])[C:4]([H:11])([H:12])[H:13].[H:23][O:22][H:24]" total_charge=0 config_type="DES370K Dimers" MACE_energy=-9573.196296872975 pbc="F F F"
C        0.38655001      -0.14951000       3.43132996      -0.45250910       0.33533186       0.10062587
C       -0.21432999      -0.71388996       2.38868999       0.18639348      -0.75516707      -0.43440344
C       -0.36056998      -0.03747000       4.75218009       0.19480860       0.01465724       0.03467087
C        1.79515004       0.43462002       3.47084999      -0.35693673      -0.21625861       0.43107364
C       -1.65930998      -1.30069006       2.44622016       0.67333510       0.73123989       0.34315823
C        0.00000000       0.00000000       0.00000000       0.54799891       1.17892146      -0.50979633
C        0.49536001      -0.93647003       1.06962001      -0.88504879      -1.62416576       0.01939644
H       -1.45537996       0.01944000       4.63070965       0.59638050      -0.03900986       0.05021028
H       -0.02382000       0.84338003       5.32428980      -0.16526687      -0.40072234      -0.18306621
H       -0.11732000      -0.94562000       5.32896995      -0.20958294       0.41074216       0.09185378
H        1.72049999       1.53310001       3.40461993       0.17569649      -0.38323455       0.12131981
H        2.53309989       0.08675000       2.72853994      -0.64365156       0.03679846       0.26225317
H        2.15612984       0.16662000       4.47805976       0.29003502       0.35895637      -0.43042760
H       -2.35767007      -0.45278001       2.54596996       0.04308972      -0.47698560      -0.04645100
H       -1.77163005      -1.95451999       3.32740998      -0.02394249       0.26932287      -0.47259519
H       -1.93039000      -1.87556994       1.54475999       0.34311379       0.36142969       0.38337840
H        0.69009995      -0.07038000      -0.85757005      -0.47474395       0.20681994       0.12502132
H        0.10721000       0.99820006       0.45686001      -0.18084004      -0.06518173      -0.64279759
H       -1.03337002      -0.10834000      -0.37016999       0.44000172      -0.22238566       0.45824651
H        0.16236999      -1.95903003       0.80707002       0.63982254       0.21035062      -0.16525831
H        1.60233009      -0.93107998       1.06374002      -0.72168385       0.10701086       0.45504812
O       -2.58329987      -4.61739969       2.17574000      -1.38528411       0.17263446      -0.13376842
H       -3.04051995      -3.97011017       1.59245002       0.50472709      -0.81399578       0.74416878
H       -3.31083011      -5.08935976       2.64071989       0.86408745       0.60289107      -0.60186113
21
Properties=species:S:1:pos:R:3:MACE_forces:R:3 smiles="[H:9][C:4](=[O:1])[O:2][C:6]([H:13])([H:14])[C:8]([H:17])([H:18])[C:7]([H:15])([H:16])[S:3][C:5]([H:10])([H:11])[H:12].[H:20][O:19][H:21]" total_charge=0 config_type="DES370K Dimers" MACE_energy=-22366.30873894291 pbc="F F F"
O        1.05172002      -1.42078996       5.48502016      -1.44022587       0.93628083      -0.59259042
O       -0.32244000       0.36385000       4.92476988       0.60650216      -0.69553757      -0.06454869
S       -0.20015000       1.68666005       0.53378999      -0.38304961       1.03772227      -1.38928068
C       -0.04080000      -0.91073000       5.33347034       0.95009589       0.47376602       0.62977721
C        0.00000000       0.00000000       0.00000000       0.44065563      -0.79975569       0.69380341
C        0.78178000       1.25039995       4.49813985      -0.64944041       0.81577634       1.18860808
C       -0.36860001       1.62967992       2.28303003      -0.09805460      -0.72712810       1.45070956
C        0.92233002       1.19070995       3.00076985       0.68548656      -0.71521443      -0.44054333
H       -0.99070000      -1.39595997       5.63332033       0.32394108       0.16370495      -0.35924980
H       -0.75064003      -0.64774996       0.48328000       0.30230826       0.21501505      -0.34869963
H        1.00460005      -0.33473998       0.30875998      -0.48779377      -0.15221096      -0.29844329
H       -0.08832000      -0.11442000      -1.09349000      -0.10115266       0.64387095       1.04008747
H        1.63539004       1.03415000       5.16897010      -0.18632072      -0.00947458      -0.96412459
H        0.42906001       2.27553987       4.72202968      -0.00063079      -0.63754043       0.36817574
H       -0.60056996       2.67408991       2.56737995       0.08177534      -0.52313831      -0.11296127
H       -1.20320999       0.99225998       2.63313007       0.27759423       0.40163154      -0.41824768
H        1.21811008       0.14050001       2.81363010      -0.31784858       0.51410947      -0.59488849
H        1.70780003       1.84293997       2.57290005      -0.07164101      -0.38347350       0.74921617
O        0.04242000      -1.95084000      -2.10318994      -0.44867185       0.64534751      -1.16400588
H       -0.87415999      -1.83842003      -2.44303989       1.11448525      -0.14480605       0.33117741
H        0.54141998      -1.19076002      -2.47940993      -0.59801454      -1.05894532       0.29602870
48
Properties=species:S:1:pos:R:3:MACE_forces:R:3 smiles="[H:30][c:7]1[c:8]([c:10]([c:16]2[c:15]([c:9]1[H:32])[C:21]([N:19]([C:22]2([H:38])[H:39])[C:5](=[O:1])[c:14]3[c:11]([c:18]([c:17]4[c:13]([c:12]3[O:3][H:28])[O:4][C:26]5([C:25]4([C:6](=[N:2][N:20]5[H:35])[H:29])[H:46])[H:47])[C:27]([H:48])([C:23]([H:40])([H:41])[H:42])[C:24]([H:43])([H:44])[H:45])[H:34])([H:36])[H:37])[H:33])[H:31]" total_charge=0 config_type=PubChem MACE_energy=-32751.569292261076 pbc="F F F"
O        3.20677426      -0.90235422      -0.13427619       0.15176213      -0.64879417       0.14248920
N       -2.58573959      -1.48259637       4.97405721       2.12476421       1.87926623      -0.74067059
O       -0.57857892      -1.86681555      -0.34645591      -0.17052340      -0.85514805      -1.24225182
O       -2.40875504      -1.09929261       1.64991512      -0.01845908      -0.37872577      -0.89087368
C        2.06172277      -0.61874971      -0.44154821       2.08313599       1.08886388      -2.04860722
C       -1.79960201      -0.43390498       4.87606575      -1.54833616      -2.11483334       1.07152880
C        2.20806482       2.28481235      -5.70880935      -0.17979837      -1.39584948       1.77513081
C        0.91530123       2.60543468      -5.29651353      -0.03071058       0.11217162       0.50050754
C        2.94568445       1.35408654      -4.92728708      -0.75436952      -0.16970053       0.20942258
C        0.35093505       2.06293585      -4.13561199       0.76484092      -0.38741022      -0.55326275
C        1.42639347       0.44441217       1.68564476      -1.15835726      -0.59409738      -0.12832899
C       -0.19659112      -0.98312876       0.58180598      -0.45466983       0.21267562       0.92616560
C       -1.11483440      -0.69066045       1.57639887       1.23545876       1.98612166       2.14476804
C        1.07897689      -0.40610753       0.61967952      -1.63510150       0.33597351       0.56350346
C        2.33112480       0.74837594      -3.79876182       0.40799552       0.08483626      -0.59616755
C        1.04361906       1.09468152      -3.42219064       0.21350771       1.29397059      -0.93094482
C       -0.76186488       0.13946657       2.65988519       1.14798227       0.41316429      -0.98572083
C        0.51890123       0.73791583       2.71885111      -0.05964821      -0.91838566      -0.43902054
N        1.81321086      -0.23624746      -1.76949451       0.53548512      -1.22396500       2.36311969
N       -3.28456996      -1.54520319       3.80419924      -2.08553475      -1.61141810      -1.44861272
C        2.87348868      -0.26905505      -2.78457258       0.44584737       1.08751265      -0.50821733
C        0.62928425       0.46009820      -2.15374706      -0.90947940       0.02806593      -0.26323078
C        1.68452718       2.82001211       3.58554270       0.30260540       0.78816407      -0.32784305
C        1.82565930       0.61711946       4.85473873      -0.20356525       0.41424190       0.26216766
C       -1.94848916       0.28366976       3.59357550       0.70460672       0.66340154      -1.15906918
C       -3.00321910      -0.50961802       2.81143834       0.62260744      -1.40732036       1.70525665
C        0.97602566       1.50839748       3.93302872      -0.58945315       0.66399219       0.06539560
H       -1.44038699      -2.21961591      -0.08804504       0.25149380       0.07981354      -0.21650221
H       -1.17427776      -0.12431083       5.69763185      -0.02191174      -0.06762147      -0.00384181
H        2.59682443       2.73641136      -6.58832738       0.44848426       0.19354529      -0.44014897
H        0.36569525       3.35486128      -5.84123561      -0.12111578       0.03875245      -0.11535808
H        3.96697976       1.08174755      -5.19279001      -0.28690655       0.11706580       0.02897287
H       -0.59920380       2.37202861      -3.77047441      -0.65774374       0.29061051      -0.03009567
H        2.42003741       0.83917984       1.68751409       0.31706456       0.17045302       0.05582461
H       -3.51922319      -2.49679944       3.43102791       0.38141344       1.53498932       0.95334675
H        2.93705918      -1.26548896      -3.22570584       0.28042163       0.05056838       0.09406956
H        3.88436105       0.07788511      -2.43249628      -1.13102726      -0.65456452       0.10078154
H        0.33781985       1.20214554      -1.40780518      -0.02345765      -0.03948358      -0.01285395
H       -0.22231362      -0.20994816      -2.32036541       0.06309255       0.03791410       0.13929910
H        1.99029031       3.37927725       4.48558905      -0.04094229      -0.45702563      -0.20369136
H        2.58910658       2.66556408       2.96747710      -0.41822600      -0.01259157       0.37713808
H        1.04007675       3.53088619       3.02981379       0.19240650      -0.61741107       0.16440560
H        1.29852947      -0.32644025       4.99469902       0.23190404      -0.03378964       0.12161450
H        2.82740857       0.41868914       4.44380142      -0.44297268       0.08536696       0.04104679
H        1.93697288       1.12236520       5.82995464       0.07425875      -0.32619584      -0.36621189
H       -2.21859715       1.31334784       3.77316453      -0.08158091       0.35054543      -0.17253235
H       -3.86676071       0.02022817       2.46852984      -0.54112495       0.19900786      -0.03966174
H        0.04265746       1.81080832       4.45299103       0.58387693      -0.28672326       0.05776485
17
Properties=species:S:1:pos:R:3:MACE_forces:R:3 smiles="[H:13][C:10]([H:14])([H:15])[C:11]([H:16])([H:17])[O:9][H:12].[H:4][C:2]([H:5])([H:6])[C:3]([H:7])([H:8])[F:1]" total_charge=0 config_type="DES370K Dimers" MACE_energy=-9097.218534889724 pbc="F F F"
F        0.96403003       1.74259007       3.48824000       0.12911924      -0.04500591      -0.04473524
C       -1.23887002       0.99510998       2.99439001      -0.19926991      -0.37000784       0.01273940
C       -0.28100002       2.15890002       3.01171016      -0.31022608       0.69422969      -0.24836134
H       -0.86280000       0.19240999       2.33801007      -0.17342489       0.36359593       0.25514180
H       -2.22126007       1.32626998       2.61775994       0.40592172      -0.14023150       0.15243871
H       -1.37119997       0.58596003       4.01011991       0.04280620       0.19549642      -0.44304246
H       -0.12355999       2.58410978       2.00183010      -0.03496707      -0.29637585       0.47093630
H       -0.63091004       2.97685003       3.67048001       0.19977770      -0.45586299      -0.25914078
O        1.78453994      -0.20647001       0.72235000       0.21329576       0.59804447       0.78207890
C        2.72980976       1.79700994      -0.32977000      -0.08200158       0.26000678      -0.09968348
C        2.84294009       0.30167002      -0.09140000       0.08193270      -0.42990161      -0.25404954
H        1.83223986       0.24945000       1.58851993      -0.07446658      -0.43401073      -0.77726784
H        1.75762999       2.03542995      -0.79306000       0.41353783      -0.07520967       0.20426444
H        3.53371000       2.13887000      -1.00318002      -0.31640410      -0.08620097       0.29800359
H        2.81035996       2.34801006       0.62235003      -0.01734750      -0.16574606      -0.37066369
H        2.75850010      -0.24981999      -1.04751992       0.10199372       0.30745525       0.50382872
H        3.82598996       0.05492000       0.35378003      -0.38027719       0.07972460      -0.18248749
47
Properties=species:S:1:pos:R:3:MACE_forces:R:3 smiles="[H:47][C@:19]12[C@:18]([C:14]([C@:16]([C:12]([C@@:17]1([N:3]([C:6]([C:10]([C:15]2([H:42])[H:43])([H:31])[H:32])([H:23])[H:24])[H:20])[H:45])([H:36])[H:37])([H:44])[C:11]([H:33])([H:34])[H:35])([H:40])[H:41])([H:46])[C:13]([H:38])([H:39])[C:2]3=[N+:4]([C:7]([C:9]([C:8]([C:5]3([H:21])[H:22])([H:27])[H:28])([H:29])[H:30])([H:25])[H:26])[O-:1]" total_charge=0 config_type=PubChem MACE_energy=-22089.486263966388 pbc="F F F"
O        2.63550808       3.09452727       1.21422358       0.94116370       2.47623112      -2.87032796
C        2.19836773       1.16543057       2.16901305      -0.36368707      -0.82956862       0.97049780
N       -1.16003416      -1.41747401      -2.62977264      -0.09769223       0.45756849      -0.49275758
N        2.58838608       2.42371430       2.23499634      -2.42076628      -3.19342859       1.46224510
C        1.99848070       0.33090299       3.42598250       0.35463291       0.42329940       0.52601288
C       -0.14143465      -1.53409693      -3.69572208      -0.41007339      -1.27654687       0.59814514
C        2.58443548       3.18909504       3.50385882       0.58299385       0.39248990       0.03202110
C        1.79601552       1.14271875       4.72743656      -0.39843453      -0.38680787      -0.16647365
C        2.70589258       2.36626568       4.76188089       0.69882127      -0.56618819       0.14286303
C        1.19614305      -1.81136200      -3.05894015       1.19757280      -0.06878673      -0.06654111
C       -2.91783903       1.55155899       0.91310071       0.51121037       0.56392477      -0.70333515
C       -2.04075525      -0.02316604      -0.85279880       0.48614093       0.59755117       0.71374187
C        1.97595980       0.38704053       0.87158202      -0.11984566       1.13880829      -0.24552648
C       -0.48020158       1.08166232       0.80951401       0.27896483      -0.19435049      -0.86962288
C        1.59721126      -0.75164435      -2.01204250      -0.93774504      -0.32131374       0.05226831
C       -1.74997160       1.23265006      -0.03257499      -0.75712825       0.16910264       1.26945846
C       -0.88667927      -0.22699199      -1.78453586       0.70206223      -1.95399604       0.10254867
C        0.75311416       0.72312882      -0.05182389      -0.54546711      -0.22335662       1.06641216
C        0.44563190      -0.48688576      -0.98256598       0.25758215       0.92529312      -0.50339482
H       -1.13443623      -2.25064275      -2.02186344       0.04031099       0.62122718      -0.56370492
H        1.17916103      -0.38947890       3.27797391       0.20320696       0.43786003      -0.04398616
H        2.89344075      -0.28234217       3.55315878       0.05929793      -0.13263572      -0.04659025
H       -0.13350318      -0.62833223      -4.29747913      -0.08435022       0.09714787       0.07830477
H       -0.37700603      -2.39105699      -4.36047027      -0.15699874       0.60721779       0.28551972
H        1.64423360       3.73543789       3.55283620      -0.03636798       0.03707007      -0.45020926
H        3.39333655       3.92522695       3.36737587      -0.38386622      -0.34330132       0.22564385
H        1.96771373       0.49727394       5.60890390      -0.04245054       0.33151030      -0.44616538
H        0.74854084       1.46217384       4.78247501       0.13975325       0.03665216      -0.03829866
H        3.75329997       2.02229323       4.89214279      -0.54458194       0.31672829       0.07994354
H        2.41673615       3.02279427       5.58808567       0.32909128      -0.20530522       0.00266198
H        1.99317159      -1.80480525      -3.80960367      -0.09495178      -0.10895175      -0.09461626
H        1.21458497      -2.84306381      -2.64644024      -0.19390751       0.62925386       0.02135927
H       -3.01901338       0.78628879       1.65121164      -0.29192061      -0.54977214       0.46841925
H       -3.80084226       1.63924780       0.29966273      -0.55701867      -0.05912502       0.12886012
H       -2.76488922       2.50635364       1.42137041       0.02477903      -0.10199772      -0.01354803
H       -2.14123151      -0.90784381      -0.20923851       0.06876656       0.20740404       0.09910203
H       -2.98284075       0.08143069      -1.36071668      -0.27085892       0.04243452      -0.48732611
H        1.92360070      -0.68381450       1.11699965       0.16706374       0.40452448      -0.02281133
H        2.81710365       0.59836784       0.24143322       0.78788149      -0.27137135      -0.21183790
H       -0.62873624       0.28953031       1.55302348      -0.14713556       0.09332516      -0.00195536
H       -0.29920171       2.02194156       1.33354332       0.10631756      -0.11964275       0.08096583
H        1.85102584       0.16618373      -2.57388375      -0.12909929      -0.21350849       0.51631829
H        2.48551621      -1.12411139      -1.51283047       0.17517899       0.26628768       0.15264099
H       -1.70645378       2.11902561      -0.68231962       0.47328375      -0.40677337      -0.15682617
H       -0.77459083       0.64911916      -2.42996690       0.09705190      -0.16890073      -0.01962102
H        0.93486970       1.62394740      -0.64530299       0.39880928      -0.29058191      -0.04854596
H        0.31950819      -1.40688953      -0.34956268      -0.09759022       0.71329894      -0.51193178
18
Properties=species:S:1:pos:R:3:MACE_forces:R:3 smiles="[H:16][C:8]1=[C:5]([C:4](=[O:1])[O:3]/[C:11]1=[N:2]/[N:12]2[C:9](=[C:6]([C:7](=[C:10]2[H:18])[H:15])[H:14])[H:17])[H:13]" total_charge=0 config_type=PubChem MACE_energy=-15474.888083958294 pbc="F F F"
O        1.45071455       4.21218016       3.20219090       1.65535244      -0.46833217       0.21223631
N        1.86052039       0.17340856       1.04307546       1.48540401       4.14984256       2.40786614
O        2.12821617       2.28723433       2.05939295       1.25139312       0.66285464       1.59182220
C        1.24718275       3.28760888       2.48767950      -2.00010641       1.69493377       0.00178328
C       -0.08348868       3.05867960       1.87997391      -0.59628189      -1.93539696      -0.37613803
C       -0.30723319      -2.07026098      -0.67898915      -0.54064318       0.69854280      -1.85948480
C        0.27144899      -1.27509246      -1.75067136       1.49408033       0.12851592       0.67330812
C       -0.00906161       1.87351872       1.25845029       0.19823064       0.11707801       0.08373283
C        0.13252594      -1.53628323       0.48185637       1.47239805       0.41787710       1.33619244
C        1.25683399      -0.41002397      -1.22061608      -2.19429818      -1.18530557       0.73491169
C        1.42563298       1.36718323       1.45543071      -2.81532354      -4.62944260      -3.85155070
N        1.12077667      -0.54072867       0.14729931      -2.37366138      -1.18427828       0.48957262
H       -1.02058289       3.60141089       2.08850171       1.09114187       0.04070730      -0.16874263
H       -1.02170358      -2.91035149      -0.80091069       0.63419591       0.96902644       0.17611302
H        0.06222116      -1.31639645      -2.79413316      -0.06194799      -0.37213002      -0.41256306
H       -0.83861325       1.33086475       0.77088848       0.98716615       0.23259264       0.32643883
H       -0.12601975      -1.91101859       1.52029540       0.83794185       1.03519086      -1.42174025
H        1.97581889       0.30325591      -1.62452528      -0.52504178      -0.37227643       0.05624198
49
Properties=species:S:1:pos:R:3:MACE_forces:R:3 smiles="[H:37][c:15]1[c:10]([c:19]([c:11]([c:16]([c:23]1[C:27]([H:44])([H:45])[C:26]([H:42])([H:43])/[N:4]=[C:7]2/[c:22]3[c:14]([c:8]([n:5][c:9]([c:21]3[C:6](=[N:3]2)[N:25]([H:41])[C:29]([H:48])([H:49])[C:28]([H:46])([H:47])[c:24]4[c:17]([c:12]([c:20]([c:13]([c:18]4[H:40])[H:35])[F:2])[H:34])[H:39])[H:31])[H:30])[H:36])[H:38])[H:33])[F:1])[H:32]" total_charge=0 config_type=PubChem MACE_energy=-35591.81139215348 pbc="F F F"
F       -3.34895751      -3.81933734      -5.20519301      -0.66483383       0.94472423       1.06205113
F        1.50798496      -0.73093710       6.03231623       0.59778957      -0.07131525      -1.68362621
N        0.55333373       1.49651196      -0.13033769      -1.44887170      -1.25958166      -1.43735328
N       -1.57275698       2.46222188      -0.46322176       0.84908838      -0.33813058       1.44515811
N        1.45457383       4.07973053       3.60769942       2.42291039      -2.02035645      -0.77335517
C        1.50666352       1.72970154       0.67888384       5.24134174      -4.29541996      -4.47451006
C       -0.42624388       2.35479786       0.18772866      -5.17425659      -0.37047738      -3.19270978
C        0.28639259       4.49216320       3.27716472      -3.46333242       1.69690885      -1.20085026
C        1.93735554       3.11127426       2.78616931      -0.19351556       0.10092825       0.00820100
C       -4.20315454      -2.20346592      -3.55752180      -0.86632163      -1.42342248      -1.65482813
C       -1.88529775      -2.59386823      -3.86102388      -0.06477438       0.85973858       1.52661095
C        1.93014457      -1.26530812       3.63217356       1.06094053       0.80958033      -0.27779283
C        3.31153037       0.26874771       4.90646650      -0.03057360       1.53438502       0.13659491
C       -0.53140650       4.03995492       2.21045663      -0.51834986       0.56792092      -0.92555685
C       -3.88263414      -1.28402469      -2.62121913      -0.67733337       1.87563999       1.39067636
C       -1.59594009      -1.65925882      -2.81552670      -0.33195147      -1.60022011      -1.42517120
C        2.71094205      -1.00988219       2.46853473       0.88500530       1.49458699       2.33755889
C        4.04204490       0.51992999       3.73958161       0.75481696       0.29055879      -0.69243899
C       -3.19995282      -2.87617014      -4.20377395       2.34513455      -0.41811560      -0.56674143
C        2.23143091      -0.55853412       4.85669090      -0.98585601      -2.02593496      -1.11160791
C        1.23150982       2.63473656       1.67238678       2.48153055       1.90684076       3.57026706
C        0.01649603       3.10692026       1.32779928      -2.84508860       2.86475896       2.74026671
C       -2.60650346      -0.97449205      -2.18616936       0.92326434       0.76387403       0.87241421
C        3.79971697      -0.12912039       2.50291278       0.36164868       0.39998532       1.82619784
N        2.65890195       1.11150875       0.15093263       0.12860335       1.08129149       2.36231028
C       -1.91871879       1.47811951      -1.54177902       5.16903834      -1.17327696       1.30740781
C       -2.24912426       0.03740539      -1.04171035      -0.81157676       0.67476791      -1.77316933
C        4.69979813       0.20628934       1.32018896      -0.39237596      -0.34389825       0.07877320
C        4.05602695       1.34123995       0.48596501       0.41576189      -0.94919985      -0.52070281
H       -0.11023758       5.36990692       3.78155257       0.07115925      -0.29441265       0.45255151
H        2.91114070       2.71295812       3.01327898       0.02538693       0.00755343       0.14338432
H       -5.21161983      -2.43662784      -3.85322235      -0.29165485       0.25362885       0.17315636
H       -1.07978318      -3.14870403      -4.28249786       0.32585644      -0.25147951      -0.41862923
H        1.19809177      -2.03310058       3.45442440      -0.54290736       0.13968812       0.79407597
H        3.41887524       0.86350709       5.83311416       0.34001179      -0.49351251      -0.74011795
H       -1.52474974       4.52648379       2.01328041       1.20847502      -0.67994055       0.34460612
H       -4.68311450      -0.69162045      -2.21749422      -0.37770280      -0.04700723       0.31231913
H       -0.58468674      -1.57975481      -2.48379967       0.51804793       0.24319897       0.01745808
H        2.55807593      -1.35543249       1.49838402      -0.98732225      -1.36810468      -1.07036980
H        4.83034565       1.30649575       3.73580577      -0.54725897      -0.81182177       0.31522783
H        2.40842273       0.48178118      -0.58452818       0.08350565       0.07242850      -0.26760901
H       -2.64702175       1.81031575      -2.16338537      -2.29150478       1.40319298      -1.44110665
H       -0.95920703       1.38733276      -2.15438721      -1.23273269      -0.00887525       0.40179108
H       -3.07088110       0.18489953      -0.38387857      -0.77509604      -0.34414609       0.67069924
H       -1.40349934      -0.28333018      -0.49429152       0.73104275      -0.61751627       0.52868697
H        5.69050028       0.51613110       1.68375256      -0.40110080       0.12965437      -0.06066099
H        4.92311337      -0.65550539       0.67234125      -0.46398534       0.07731165       0.29756603
H        4.11048224       2.21698191       1.13643708       0.13332947       0.29137577      -0.77023565
H        4.64128019       1.37011196      -0.49177775      -0.69341221       0.72164295       1.36313242
30
Properties=species:S:1:pos:R:3:MACE_forces:R:3 smiles="[H:21][c:7]1[c:8]([c:10]([c:13]([c:11]([c:9]1[H:23])[H:25])[O:3][C:18]([H:29])([H:30])[C:4]2=[N:1][N:16]([c:14]3[c:12]([c:5]([n:2][c:6]([c:15]3[N:17]2[H:28])[H:20])[H:19])[H:26])[H:27])[H:24])[H:22]" total_charge=0 config_type=PubChem MACE_energy=-21694.957343613012 pbc="F F F"
N       -1.11508963       1.23279544      -0.52418361      -0.12698200       0.63108821       1.97188443
N        3.23997452       1.44684495      -3.06213830      -0.85724786       0.92876318      -1.02864467
O       -0.22688446       1.79582598       2.90823176       1.09964759      -0.64839798       0.39610868
C       -0.20960358       1.64385726       0.37943553      -0.78239947      -1.50875611      -5.09176148
C        2.26887800       1.26277598      -3.97716424      -2.06550033      -1.26237095       2.00963340
C        2.84050991       1.57776286      -1.77885101      -2.24719412      -0.42188944      -0.19295495
C        0.47466664      -2.20558164       3.65272309      -0.85100004      -2.02079623       0.02808882
C        1.18747296      -1.21894739       4.25367786       0.74883234      -0.95808352       1.75916656
C       -0.61351762      -1.95123599       2.82132365       1.24721159       1.90132011      -0.16460844
C        0.87061622       0.11632510       4.04742243       1.17383465      -1.64853025       0.85047885
C       -0.91232441      -0.61496947       2.50231244       2.97894189      -0.35480144       2.68207317
C        0.93065440       0.87254464      -3.55241153       2.67124412       1.54427871      -1.48992526
C       -0.09077064       0.41802364       3.16002824      -2.75209807       0.41271407      -2.94681519
C        0.51506786       1.06143167      -2.29707596      -0.21247554      -0.40542080       1.59377629
C        1.48119261       1.46872737      -1.37860999       1.91003670      -0.09547701       0.21618562
N       -0.79405496       0.84895732      -1.87786100       0.73899360       0.61806553       2.07283509
N        1.11634698       1.62333503      -0.03956208       0.04131067       0.61504426       1.66660589
C       -0.66003463       2.31589903       1.66003957      -1.34731503      -2.56732459       0.03117049
H        2.33136787       1.38919320      -5.05705545       1.12163640      -0.26354717       0.33752739
H        3.55400707       1.80308809      -0.99739680       0.31885961      -0.09401788      -0.24065351
H        0.65214712      -3.26792667       3.90002515       0.23172455       0.76331680      -0.19321584
H        1.92735674      -1.59815953       5.01599504      -0.61445028       1.08076158      -0.98577659
H       -1.02891109      -2.79414699       2.32359602      -0.83856461      -0.20930221      -0.25906746
H        1.43418207       0.80732777       4.61175158       0.25070644       1.12194803       0.06259232
H       -1.66418335      -0.48774109       1.81274249      -1.39655210       1.09097462      -1.37670313
H        0.15400460       0.66701540      -4.20684622      -0.90463896      -0.46626029      -1.79347255
H       -1.47045360       0.26184290      -2.38446138       0.72708472       0.75155826       0.92354294
H        1.79102614       1.96905854       0.62223742       0.14157354      -0.04208539      -0.24287512
H       -0.38515649       3.34988882       1.65768912      -0.12172556       0.52096890      -0.03079103
H       -1.72317050       2.08150389       1.67970218      -0.28349442       0.98625900      -0.56440470
42
Properties=species:S:1:pos:R:3:MACE_forces:R:3 smiles="[H:32][c:18]1[c:16]([c:12]([n:4][c:15]([c:17]1[H:31])[C:25]([H:41])([H:42])[N:22]2[c:19]3[c:13]([n:2][c:11]([n:3][c:14]3[N:21]([H:35])[C:24]([H:39])([H:40])[C:6]4=[N:1][C:7](=[C:10]([O:5]4)[C:23]([H:36])([H:37])[H:38])[H:26])[N:20]([H:33])[H:34])[C:8](=[C:9]2[H:28])[H:27])[H:29])[H:30]" total_charge=0 config_type=PubChem MACE_energy=-30403.056577109932 pbc="F F F"
N        0.91392760       1.99166181       2.73597982      -2.68924511       0.50741348       0.37123463
N       -0.76560567      -3.44257352      -0.11171017       0.54279262      -0.32975394       0.15327148
N       -1.72232673      -1.45041595       0.77140721       1.07891938       1.70696605       0.57022685
N        1.33684041       2.03682174      -1.03551433       0.13075550      -0.37432605      -0.62880217
O       -0.91251848       3.00771954       3.61107947      -0.61882389      -0.39071351      -0.91232851
C       -0.41655920       2.05095544       2.77814390       1.91510225      -1.01742324      -0.39970047
C        1.25824698       3.00569035       3.58408477       0.75522324       1.39287254       0.95103532
C        1.69898798      -3.33826730      -0.62587247       0.00585221       0.38836311       0.32792477
C        2.62755444      -2.32903907      -0.46818290      -1.63624277       0.09172728      -0.20170437
C        0.16852712       3.66410973       4.09314897       2.66078370      -0.78500156      -0.20237788
C       -1.72025845      -2.70470617       0.41988837       1.29690154      -1.18280762      -1.47371436
C        0.86960136       2.63407972      -2.13968752      -0.56650652       0.61016591      -0.05612460
C        0.40612431      -2.81657002      -0.21352349       1.77914946      -1.56488093      -0.67958074
C       -0.56633184      -0.85680423       0.58269426       1.27638082       2.66939544       1.00823544
C        2.12785950       0.95804172      -1.21217713      -0.34044787       0.82913301      -0.55364941
C        1.12364819       2.22542228      -3.44341633      -0.05559585       0.04587278      -0.22104130
C        2.51974525       0.53093696      -2.48129318      -0.51656075      -0.14644528      -0.23635560
C        1.96913900       1.14609774      -3.61671589       0.71915827      -0.30450278       0.35559042
C        0.60305094      -1.51867888       0.12588765      -0.43948426       1.58911302       0.14036605
N       -2.88713357      -3.29962299       0.42618503      -2.79570882      -1.56051060       0.25150299
N       -0.49077532       0.48426792       0.90762957       0.62988341       0.26336096       0.38485475
N        1.95303192      -1.16659353      -0.02952031       0.89993217      -0.59009208       0.21454863
C        0.16278120       4.81253149       5.04908516      -1.40041813       0.03910709      -1.14207862
C       -1.26866577       1.06263586       2.02808394       0.79266355      -0.32032118      -0.48807656
C        2.54757263       0.17782041       0.01216998      -0.46901163      -0.16086415      -0.35625928
H        2.29781630       3.23797490       3.82698800      -0.47705380      -0.09368549      -0.25141501
H        1.86614504      -4.35106180      -0.94823120       0.18856663       0.04942209       0.03099100
H        3.69034030      -2.38675926      -0.70506893      -0.45971918       0.45154175       0.28570593
H        0.20091422       3.50572326      -2.03693340       0.45820612      -0.52977064       0.43111913
H        0.67097236       2.73561218      -4.31235836       0.30141785      -0.30486555       0.76364197
H        3.16347506      -0.34576765      -2.54307935      -0.15974913       0.30489641      -0.20779201
H        2.23027231       0.81786164      -4.61852119      -0.02431111      -0.09368121       0.23092140
H       -2.82189081      -4.05991266      -0.23424635      -0.94112161      -0.06238702       0.19234764
H       -3.64052293      -2.63437769       0.40041476      -0.37409826      -0.48092500      -0.15614506
H        0.39646045       0.95415022       0.67333295      -1.14496326      -0.25783749       0.47407806
H        1.18331798       5.12202551       5.24651863      -0.03744933      -0.18626312       0.14380469
H       -0.36682872       4.48139002       5.93587686       0.08007270       0.43627375       0.35642610
H       -0.36855457       5.67042210       4.57354595       0.28247339      -0.50869992       0.60230789
H       -1.58926389       0.26578917       2.69867875      -0.00595617      -0.04174704      -0.06300009
H       -2.13809488       1.52622344       1.63388088      -0.90932349       0.52570551      -0.12500066
H        2.29405620       0.74254882       0.91308313      -0.03214621      -0.33188948      -0.05271568
H        3.62036421       0.07807945      -0.02629356       0.29970231      -0.28193528       0.16772725
7
Properties=species:S:1:pos:R:3:MACE_forces:R:3 smiles="[H:2][O:1][H:3].[H:6][S:4][S:5][H:7]" total_charge=0 config_type="DES370K Dimers" MACE_energy=-23787.747230758912 pbc="F F F"
O       -6.45191002       2.78997993      -3.35535002       0.32013300      -0.29504363       1.32709214
H       -7.05790996       2.47994995      -2.64477992       0.78014253       0.37869775      -0.83898025
H       -5.57003975       2.84577989      -2.92238998      -1.10027553      -0.08365413      -0.48811189
S        0.00000000       0.00000000       0.00000000      -0.13621769      -0.10788040      -0.10110191
S       -0.13419999       1.46281004      -1.46981001       0.09271876      -0.13117911       0.20068123
H        0.52912998       0.65885001       1.05281997       0.07862553       0.21383241      -0.46272787
H        0.82464004       1.02144003      -2.31142997      -0.03512660       0.02522710       0.36314856
20
Properties=species:S:1:pos:R:3:MACE_forces:R:3 smiles="[H:19][N:12]1[C:9](=[O:4])[C:14]([N:13]([C:7]1=[O:2])[H:20])([C:8](=[O:3])[N:11]([H:18])[C:6](=[O:1])[N:10]([H:16])[H:17])[O:5][H:15]" total_charge=0 config_type=PubChem MACE_energy=-21492.61519049389 pbc="F F F"
O        3.56277968       2.77483608      -0.03512934       0.08180510      -0.44638475      -0.07407464
O       -3.38697312      -0.83112297       0.79602557      -0.32749445      -0.05965801       0.57021725
O        1.77597692      -0.30300865       1.49779268      -2.03331434       0.84604661      -0.17021175
O        0.40268437      -1.29996059      -1.32810614      -1.37808803       1.47095334       4.11729768
O       -0.70394681       1.61274566      -0.43549720       1.69103068      -1.18867954       0.67094242
C        3.09762098       1.98714604       0.77144983       2.20123853       2.04420493       0.13663733
C       -2.18683050      -0.75039718       0.69506793      -4.57877975       1.10967181       1.47804770
C        1.14159693       0.62575570       0.98162477       0.85274647      -2.81469652       0.31444655
C       -0.28052477      -0.94294605      -0.31455777       2.41863177      -1.00789370      -7.01392878
N        3.89126017       1.51645794       1.80820360      -1.27496102      -0.21181174      -0.55136180
N        1.73077919       1.75790121       0.66112071      -1.92998693       1.25936623      -0.11804883
N       -1.47143290      -1.53342674      -0.09043429       2.55733024      -1.80766229      -1.31066153
N       -1.40398929       0.22072952       1.24293973       1.54372820      -0.19104912       0.80321553
C       -0.28935371       0.41417123       0.37294326      -0.27903135       1.63946574       0.42069402
H       -1.22120092       1.41493573      -1.22042224       0.12537210      -0.51130455       0.00722806
H        3.46761825       0.98427190       2.59667065       1.11242685       0.48717613      -1.34674934
H        4.89597418       1.70441808       1.61542609      -1.46764561      -0.43318056       0.79743131
H        1.09996506       2.38734546       0.11751755       1.59911229      -0.32156577       0.38808557
H       -1.74181268      -2.19368956      -0.82422922      -0.50256180       0.32822707       0.93684021
H       -1.79664634       1.03738179       1.67513826      -0.41155895      -0.19122534      -0.05604695
11
Properties=species:S:1:pos:R:3:MACE_forces:R:3 smiles="[H:6][C:4]([H:7])([H:8])[C:5]([F:1])([F:2])[F:3].[H:10][O:9][H:11]" total_charge=0 config_type="DES370K Dimers" MACE_energy=-12361.51130707071 pbc="F F F"
F       -1.25141990       1.49197995       1.08018005      -1.11861631       0.58672629      -0.16798605
F       -2.01921010       0.68538004      -0.86451000      -0.44992957       0.24824387       0.43266819
F       -0.43033999       2.13817001      -0.82382000      -0.04288926      -0.12814774       0.04981760
C        0.00000000       0.00000000       0.00000000       2.37349239      -2.06560110      -1.01141533
C       -0.93847996       1.07628000      -0.16901000      -0.30659913       0.95178344       0.70289929
H        0.21961000      -0.32723999      -1.03018999       0.25202894      -0.20505705       0.51387677
H       -0.35591000      -0.86997002       0.57714999      -0.19038993       0.72369946      -0.29333842
H        0.93304002       0.36853001       0.45850998      -0.52704985      -0.11359229      -0.23211228
O        0.27956000       5.37841987       0.28091001      -0.49027433       1.25955524      -0.42429280
H       -0.62857997       5.73385000       0.41214999       1.12048591      -0.42052496      -0.18748649
H        0.75042999       6.08067989      -0.22244001      -0.62025887      -0.83708517       0.61736951
44
Properties=species:S:1:pos:R:3:MACE_forces:R:3 smiles="[H:35][C:18]1([C:19]([C:21]([C:23]([C:22]([C:20]1([H:39])[H:40])([H:43])[H:44])([C:5]#[N:1])[N:12]([C:7](=[O:2])[C:17]([H:33])([H:34])[N:11]2[C:10](=[C:9]([C:8](=[N:6]2)[C:14]([H:24])([H:25])[H:26])[N+:13](=[O:3])[O-:4])[C:15]([H:27])([H:28])[H:29])[C:16]([H:30])([H:31])[H:32])([H:41])[H:42])([H:37])[H:38])[H:36]" total_charge=0 config_type=PubChem MACE_energy=-29504.529144041186 pbc="F F F"
N        1.13218137       3.68239906       0.88490262       1.05067521      -3.52389060       1.06882482
O       -1.31892131       1.66273692       2.06689145       1.19923029      -0.84064188      -0.56893262
O       -0.37919996       0.53057919      -4.84247158       0.56324495      -0.99056112      -0.41187980
O       -1.53411911       2.15502813      -4.09222887      -0.17571960       0.29317572       0.01611510
C        1.37544003       2.59583356       1.27761450      -1.57310581       3.05256431      -0.90524103
N       -1.31489024      -1.34631167      -1.29290531      -0.10307241      -0.20508273       0.75515596
C       -0.87453745       0.66694476       1.49605300       0.32542256       1.40660687       1.23610930
C       -1.05574546      -1.06265590      -2.52687356      -0.76819227       1.65787098      -0.72541186
C       -1.26662610       0.37224712      -2.75570581       0.73946384      -2.73701189       0.18839847
C       -1.65492389       0.88402088      -1.55718062      -0.27043927       0.84703896       1.12213682
N       -1.65523980      -0.19187103      -0.70048521      -0.33638221       1.19569547       0.74856272
N        0.50195015       0.29353336       1.52757736      -1.64188164      -0.36869985      -0.84364801
N       -1.04124651       1.04230782      -3.97674129      -0.55981845       1.31744210      -0.00143164
C       -0.90014002      -2.15792368      -3.47399614       0.73232916      -0.33080713      -0.64765321
C       -2.02025292       2.31682517      -1.18402657      -0.03811364      -0.43881452      -0.49520065
C        0.83993783      -1.08685241       1.12139484       0.66926893       0.45536213      -0.17740148
C       -1.94175408      -0.15353403       0.74037940       0.90853512      -0.70872235      -0.35548290
C        3.92004516       1.08918878       3.94382359       0.80592895       0.27678730      -0.75359027
C        2.73821976       2.02824428       4.11186316      -1.11816505      -0.45930553      -0.22121935
C        3.84318234       0.15269845       2.70068433      -0.36372086       1.57247651       0.02561219
C        1.49107637       1.42272916       3.45576145      -1.29954584       1.12973852       0.67314244
C        3.05631187       0.85489156       1.56580951      -0.01174788      -1.24692231      -0.14955223
C        1.57799532       1.26703437       1.91507032       0.29696061       0.00192333       0.82068163
H       -1.20864627      -3.06492708      -2.99259994       0.12972134      -0.48334396       0.31279540
H       -1.55980251      -2.03533695      -4.31598041       0.03047628       0.22659865      -0.48449983
H        0.13627066      -2.22794888      -3.80379960      -0.16839910      -0.15068725      -0.27242261
H       -1.14843033       2.90170100      -0.84804795      -0.32629738      -0.35069594      -0.21686797
H       -2.49401138       2.80694677      -2.05894968       0.53852748      -0.37693552       0.63316261
H       -2.74223897       2.30301275      -0.38126472      -0.07173624       0.03703399       0.30920161
H        1.13580736      -1.10088370       0.09295722       0.42943147      -0.02104914      -0.65413318
H        0.01057115      -1.76869176       1.14590784      -0.51257668       0.10403166       0.41746337
H        1.64648058      -1.54951284       1.70219435      -0.24723998       0.48485389       0.12460850
H       -1.99146555      -1.17067883       1.16667237       0.03871419       0.37675327      -0.74080540
H       -2.91885565       0.29664997       0.88856741       0.29531085       0.29998389       0.22155313
H        3.96354725       0.48879389       4.83112385       0.50255986      -0.32854106       0.41509290
H        4.81720926       1.71447768       3.83553149      -0.04463522      -0.41071539       0.37401560
H        2.92006042       2.99228956       3.64616921       0.07020220       0.18624248       0.12804768
H        2.49490251       2.17055096       5.18239834       0.31609495       0.15557558      -0.61834455
H        4.85539009      -0.09975610       2.31766762      -0.78398333      -0.02795813       0.39568579
H        3.29488256      -0.72183940       2.99465802       0.04603134      -0.67626858      -0.02498396
H        0.58601134       2.04966726       3.71050241       0.96716866      -0.73083592      -0.43567864
H        1.27025857       0.43103734       3.86024763       0.22086583       0.04115299      -0.06738694
H        3.63501598       1.67533030       1.17013838      -0.14278032       0.63287813       0.30382412
H        3.06209757       0.17482176       0.73449135      -0.31861087      -0.34429594      -0.51842202
18
Properties=species:S:1:pos:R:3:MACE_forces:R:3 smiles="[H:4][C:1](=[C:2]([H:6])[C:3]([H:7])([H:8])[H:9])[H:5].[H:13][C:10](=[C:11]([H:15])[C:12]([H:16])([H:17])[H:18])[H:14]" total_charge=0 config_type="DES370K Dimers" MACE_energy=-6420.658022252813 pbc="F F F"
C        3.25044012       6.05959987     -10.68209075       0.55593774      -0.15450880      -0.71448007
C        3.86983013       5.72545003     -11.83267974      -0.51815455       0.34281573       0.70659218
C        3.28029013       4.72439003     -12.81551932      -0.25635106       0.35339368       0.36399054
H        3.68761015       6.80836010     -10.01167106      -0.27243760      -0.34620610      -0.30882588
H        2.29714012       5.60635996     -10.38712024       0.44864989       0.12476503      -0.09658885
H        4.78383970       6.28112984     -12.08047961      -0.30480948      -0.47826956      -0.04900865
H        2.89556003       5.26453018     -13.69690989       0.17420209      -0.32473292       0.25431527
H        2.43042016       4.25543975     -12.29166984       0.28853629       0.04051895      -0.47743475
H        3.96293998       3.92957973     -13.16030978      -0.12809343       0.54029389       0.23956695
C        4.21201992      -0.00965000     -11.67974948      -0.72215760       1.42708844      -1.14058926
C        3.82324004       1.29339993     -11.76694965       1.17106753      -1.53472345       1.22564570
C        3.88339019       2.20266008     -10.54741001      -0.39163399       0.10365786      -0.38237030
H        4.24838018      -0.58855998     -12.60967063      -0.11619523      -0.00469022       0.53041324
H        4.47125005      -0.52539998     -10.74808024       0.01389776       0.51292842      -0.39013760
H        3.51671004       1.75927996     -12.71277999       0.20089415      -0.45153539       0.40852506
H        2.84952021       2.37488007     -10.20382022       0.43109204       0.21367514       0.04033704
H        4.32529974       3.17207003     -10.83302020      -0.27277742      -0.39153275       0.29907344
H        4.46684980       1.78288996      -9.71076011      -0.30166711       0.02706205      -0.50902406
45
Properties=species:S:1:pos:R:3:MACE_forces:R:3 smiles="[H:35][c:18]1[c:16]([c:20]([c:24]([c:26]([c:22]1[H:39])[C:11](=[O:1])[O:9]/[N:8]=[C:15]([H:32])/[C:13]2=[C:14]([N:28]([N:7]=[C:12]2[C:29]([F:2])([F:3])[F:4])[C:31]([H:43])([H:44])[H:45])[S:10][C:30]([H:41])([H:42])[c:27]3[c:23]([c:19]([c:17]([c:21]([c:25]3[Cl:6])[H:38])[H:34])[H:36])[H:40])[Cl:5])[H:37])[H:33]" total_charge=0 config_type=PubChem MACE_energy=-73591.36469389379 pbc="F F F"
O        3.10622909       1.53361776      -0.30785880      -3.09956272      -0.86542489      -1.62067176
F       -3.01192138       4.09796454      -2.45715258      -0.19363970       0.89018613       0.39690711
F       -2.46915481       5.25402405      -0.61581299      -0.43220281      -0.74681555      -0.94720500
F       -4.48147056       4.42304852      -0.81718621       0.89112916       0.09342482      -0.78955407
Cl       5.08109238      -0.01163772      -1.80455420      -0.61355810      -0.50223003       0.12124786
Cl      -0.65548525       0.16950190       4.65511562       0.87110980      -0.38059290      -0.12106358
N       -3.57816169       1.90757015      -0.18116537       0.64673075       0.34805675      -0.39438380
N        0.92917808       3.01316859      -0.88797758       0.46795347       1.74255895       0.50252123
O        1.09584191       1.71189405      -1.44495342      -1.39668483      -0.02606007       0.76307102
S       -0.22225175       0.32440801       1.12517007      -0.19259197      -0.88931446       0.14768607
C        2.19935955       1.05103387      -1.02078805       3.45318574       2.06153997       2.04078903
C       -2.73163602       2.89391543      -0.49192093       0.93005464      -1.20666648       1.02714119
C       -1.36328910       2.50353684      -0.15188126      -1.84758006       2.36422125      -1.44614541
C       -1.48879478       1.27797993       0.38905706      -0.11234113      -1.07657844       0.50770387
C       -0.20215807       3.37569954      -0.38048992       0.99079891      -3.27234041      -0.58500345
C        2.45164373      -2.94192097      -2.53877113       0.47729319       0.02779420      -0.26677602
C        3.29339053      -0.88770506       4.77289106      -1.09656797      -0.00818158      -0.29363760
C        1.24442770      -2.30531190      -2.33501051      -1.59141428      -1.37005175      -0.31845744
C        3.77859928      -0.18640063       3.68794252       0.53717142       0.28336884      -0.30210647
C        3.63286450      -2.23255179      -2.33579347      -0.35385515       0.09173199       0.61463140
C        1.90615942      -0.83931086       5.01808740      -0.36337187       0.54190704       0.00140660
C        1.12727108      -1.04851577      -1.82301161       1.12151664       1.00821230       0.13083490
C        2.94628193       0.59169713       2.88255646       0.02486641      -0.38490132       0.15929731
C        3.57363178      -0.92167125      -1.84508178      -0.78860742       0.56647056      -0.04377432
C        1.05404051      -0.04018900       4.21985580       0.96156252      -0.23655638       0.34953346
C        2.31162062      -0.31333873      -1.53407023      -0.29006812      -1.32614668      -1.19996641
C        1.58020785       0.67237360       3.12184622      -0.38987938      -0.65018883       0.48156313
N       -2.81904957       0.91527270       0.32369510       0.42218108       0.14037955       0.77824032
C       -3.17798088       4.19551637      -1.12830625      -0.52740585      -0.91045685       1.35986070
C        0.66588145       1.45608254       2.23772814       0.40340296       1.67112815      -0.24237536
C       -3.39916203      -0.34283421       0.85351663      -0.09556814       0.37452231       0.54910289
H       -0.29214166       4.36125614       0.01589128       0.48356390       0.67158424      -0.25628564
H        2.44456770      -3.97271821      -2.90932439       0.23429585       0.50993355       0.18236926
H        3.97974827      -1.47874258       5.37634279      -0.42199736       0.10652427      -0.03102222
H        0.30451822      -2.83406637      -2.57312820       0.70146855       0.19323597       0.16039128
H        4.84234049      -0.24768517       3.45604684      -0.32282937       0.14031148       0.03252462
H        4.59609606      -2.70034025      -2.47352836      -0.01003084       0.12387194      -0.19412114
H        1.47416582      -1.36960123       5.86092951       0.08291148       0.08821172      -0.14909829
H        0.12831157      -0.63368175      -1.70190904       0.53359877       0.15438452       0.16158530
H        3.35609867       1.12221148       2.04004278       0.01599814       0.03972052      -0.13574659
H       -0.00230316       2.04057457       2.87175395      -0.31827088      -0.26831058      -0.26617325
H        1.23929824       2.19527235       1.63961425      -0.21194156      -0.71153666       0.29366185
H       -3.14473340      -1.17074535       0.18803682      -0.21437676       0.16427170       0.09060720
H       -2.99895856      -0.57183597       1.86747195      -0.05345677       0.38237275      -0.83696802
H       -4.49123857      -0.22384200       0.96905871       0.68700965       0.05242837      -0.41214176
26
Properties=species:S:1:pos:R:3:MACE_forces:R:3 smiles="[H:6][C:3]([H:7])([H:8])[C:2](=[O:1])[C:5]([H:12])([H:13])[C:4]([H:9])([H:10])[H:11].[H:19][C:16]([H:20])([H:21])[C:15](=[O:14])[C:18]([H:25])([H:26])[C:17]([H:22])([H:23])[H:24]" total_charge=0 config_type="DES370K Dimers" MACE_energy=-12659.641486369257 pbc="F F F"
O        2.08831000       0.67934996       1.71867001       0.35375030       1.58870563      -0.43512948
C        1.72361994      -0.45063001       1.74283993       0.21927798      -2.01030084       1.70463405
C        2.55183005      -1.48519992       2.58640003      -0.43201561      -0.11666535      -0.60021246
C        0.00000000       0.00000000       0.00000000      -0.29068161       0.29414677      -0.44487693
C        0.44488001      -0.93962002       1.09742999       0.51496350      -0.57344726      -0.04594781
H        2.15504003      -2.50676012       2.46152997       0.20428287       0.43798197       0.11155491
H        2.53170013      -1.22863996       3.65895986      -0.03976634       0.04816903      -0.55318157
H        3.59910011      -1.46983993       2.24059010      -0.46009754       0.07709828       0.18736292
H       -0.09888000       1.03981996       0.35440001       0.08742572      -0.53476531      -0.14760906
H       -0.95657998      -0.30954999      -0.45359000       0.44772611       0.09431359       0.21298991
H        0.78424996      -0.03452000      -0.77484000      -0.47683767       0.26498178       0.17222559
H       -0.28437999      -1.11309993       1.91200006       0.26456477       0.09980926      -0.42282127
H        0.71007997      -1.92471004       0.66765004      -0.43471360       0.30632874       0.26262847
O        5.42131996       3.09402990       4.72674989       0.02244739       0.28405689      -0.06229576
C        4.62151003       2.85259986       3.85113001       0.63214187      -0.88815752       0.52363131
C        5.02393007       2.17107987       2.56278992      -0.09537757      -0.49152562      -0.38498314
C        2.57146001       2.01607013       5.12073994       0.38042874      -0.46141037      -0.70400124
C        3.14397001       3.01524019       4.06859970      -0.99601468       1.18334124       0.30486316
H        5.97370052       1.61523997       2.63752007      -0.36514360       0.51231642       0.18793863
H        5.09945965       2.88578010       1.72607005      -0.15996331      -0.24110659       0.33495121
H        4.21397018       1.45556998       2.34227991       0.39608379       0.32733984      -0.24068240
H        1.53110004       2.23510003       5.41445970       0.51717437       0.03861905      -0.31521127
H        3.19909000       2.00926995       6.02774047      -0.25042111       0.09528573      -0.47818644
H        2.60403990       1.01313996       4.66283988      -0.13426321       0.25274050       0.42330170
H        2.66849994       2.98619985       3.06932974      -0.19356028      -0.27688245       0.79277450
H        2.95911026       4.01771020       4.50026989       0.28858872      -0.31097341      -0.38371756
17
Properties=species:S:1:pos:R:3:MACE_forces:R:3 smiles="[H:6][C:2]([H:7])([H:8])[C:4]([H:11])([H:12])[C:5]([H:13])([H:14])[C:3]([H:9])([H:10])[F:1].[H:16][O:15][H:17]" total_charge=0 config_type="DES370K Dimers" MACE_energy=-9097.26986374473 pbc="F F F"
F        2.37816000       0.44196999       2.89056015       1.86230715      -0.16482739      -0.30610536
C        0.00000000       0.00000000       0.00000000       0.54007903       0.14207960      -0.12055469
C        1.04244995       0.57611001       3.00170994      -1.67838415      -0.58501798       0.21867743
C        0.59188002       1.30967009       0.58956003       0.23753060      -0.47271894      -1.50098274
C        0.48034999       1.59698987       2.04627013      -1.19803511       0.72815182       1.14227177
H        0.52034998      -0.92262995       0.30756000      -0.18862569       0.43842536      -0.07094309
H        0.17209999       0.15833000      -1.07791996      -0.29954892      -0.62434910       0.30467131
H       -1.08195996      -0.13375001       0.16760999       0.46256503       0.22907531       0.05548104
H        0.57125998      -0.39191002       2.74410009       0.27551135       0.21958359       0.25256172
H        0.83454996       0.77785999       4.07012987      -0.15367299       0.18006184      -0.60857592
H        0.04393000       2.06445003      -0.00667000       0.52392512       0.15947757       0.62805728
H        1.66069007       1.36913002       0.30748001      -0.51828107      -0.06361941      -0.09052790
H        0.87512004       2.61108994       2.24924993      -0.22492302      -0.53459178       0.06026048
H       -0.59942001       1.60109997       2.29023003       0.36327911       0.34999786       0.04901765
O       -1.18904006       4.65334987       1.50273991       0.38971522       0.30217800      -1.30631333
H       -1.73975003       4.66227007       0.68733001       0.71343646       0.01147071       0.97373199
H       -0.29152000       4.91852998       1.19879997      -1.10687812      -0.31537705       0.31927236
27
Properties=species:S:1:pos:R:3:MACE_forces:R:3 smiles="[H:19][c:9]1[c:10]([c:12]([c:14]([c:13]([c:11]1[H:21])[H:23])[N:16]([H:24])/[N:4]=[C:8]2/[C:7](=[N:3][C:6]3=[N:2][C:5](=[N:1][N:15]23)[H:18])[C:17]([H:25])([H:26])[H:27])[H:22])[H:20]" total_charge=0 config_type=PubChem MACE_energy=-20521.477118963325 pbc="F F F"
N        2.76304700       0.85442295      -1.05072568       0.76088842       0.15764870      -0.57442786
N        4.96189501       0.52876172      -0.41509781      -0.70646090       0.41472622      -1.36034812
N        4.28685214      -0.25557933       1.85880007      -0.97423256       0.07253226       0.24486872
N        0.74852379       0.06905495       1.27112713       1.42044788       0.11977713      -0.26739782
C        4.04414131       0.92202281      -1.39800021       0.98407455       0.15229136      -0.35355294
C        4.15473082       0.20101651       0.55834812       1.24952929       0.14972766      -0.21932421
C        3.04874231      -0.33127246       2.28248550       0.37971037      -0.54716163       0.80521001
C        2.07713964       0.05205750       1.25663885      -3.14102077       0.03573915       0.11896677
C       -3.91815755       1.45846548      -0.44000743       0.40446707       0.17009501      -0.23666278
C       -3.50572441       0.89262336       0.75924326       1.37266642      -0.09028665      -0.60014459
C       -2.97397850       1.65514138      -1.45861754      -0.50560628      -0.20177998       0.20846204
C       -2.15562675       0.52337231       0.92019486       0.27985016      -0.25466960       1.12216100
C       -1.64914749       1.24745616      -1.27197192       0.53734280       0.46581825      -0.88478055
C       -1.17680845       0.70747452      -0.07189999      -2.21665788       0.31286731       0.63933820
N        2.88787153       0.39346769       0.20533856      -0.56334492      -0.12487700      -0.02651095
N        0.17347937       0.44665136       0.11800798       2.02176597       0.04085048      -0.31849453
C        2.69925096      -0.75114379       3.67159702      -1.17034002      -0.21934909      -0.21825762
H        4.35932924       1.27901073      -2.40710018      -0.39905480      -0.43591338       1.22001844
H       -4.93822715       1.78500285      -0.59875176       0.06820652      -0.08468474       0.11328610
H       -4.17086980       0.76115083       1.59005382      -0.22781462      -0.08441315       0.11969069
H       -3.34649847       2.13640931      -2.38807056       0.75831416      -0.52758911       0.66873874
H       -1.83333490       0.12125211       1.89672496      -0.22297614       0.23643074      -0.68477561
H       -0.93209551       1.40440478      -2.07960747      -0.19421964       0.00825180       0.15326685
H        0.84582122       0.73752155      -0.62102018      -1.00312500      -0.19914077       0.35607077
H        3.47976258      -0.44881306       4.32677772       0.66791296       0.24825672       0.48010008
H        1.75977304      -0.24967668       3.98980429       0.52515922      -0.52244361      -0.21833985
H        2.59789397      -1.85247085       3.78351309      -0.10548226       0.70729594      -0.28716098
49
Properties=species:S:1:pos:R:3:MACE_forces:R:3 smiles="[H:30][c:12]1[c:13]([c:15]([c:21]([c:16]([c:14]1[H:32])[H:34])[C:11]2=[C:10]([S:6][C:9](=[N:5]2)[N:24]([H:39])[C:8](=[O:2])[C:26]([H:43])([H:44])[c:22]3[c:17]([c:19]([c:23]([c:20]([c:18]3[H:36])[H:38])[S:29](=[O:3])(=[O:4])[C:28]([H:48])([H:49])[C:27]([H:45])([H:46])[H:47])[H:37])[H:35])[C:7](=[O:1])[C:25]([H:40])([H:41])[H:42])[H:33])[H:31]" total_charge=0 config_type=PubChem MACE_energy=-54967.47674453427 pbc="F F F"
O        5.10215618       1.73516514      -1.42247377       0.05323682      -0.54089040      -0.13413392
O        1.13458755       3.94551803       4.81851437       0.15711372      -1.30688842      -0.58989450
O       -1.88681934      -0.52944992      -1.80834339      -0.87541928       0.95901452       1.37817606
O       -1.37605665       1.75606205      -2.41538760      -1.63868665      -0.40569868       2.16021400
N        2.36976971       0.95096319       2.14371969       0.49097895       0.75104456      -0.69074496
S        4.13771202       2.64197971       1.20202418      -0.96089275      -0.12178396       0.14623852
C        4.67375376       0.77118959      -0.79404125       1.80805466       0.93592856      -1.57824208
C        1.31014051       2.95878365       4.09342648      -2.12471750       2.01525120       1.93981004
C        2.80576279       2.16791965       2.28039219       0.93396249      -0.38536032      -0.25274165
C        3.94978335       1.11045434       0.39975334      -1.36830392      -1.05281212       1.43752520
C        2.98073723       0.37632223       1.02671154      -0.06590237       0.08377942       0.91457054
C        0.97588613      -3.21741150      -0.03247998       0.01428459       0.46085375      -1.11193067
C        1.07644638      -2.16527650      -0.95401785       0.12012697       0.50446488       0.04755770
C        1.61757054      -3.14634917       1.18206980       0.21688548      -0.36042670       0.73578955
C        1.79347338      -1.01846204      -0.63044760      -0.02196323       0.28087252       0.02945207
C        2.32299818      -1.98667476       1.53080847      -0.10739978      -0.33159103      -0.10384327
C       -0.72387669       2.69706037       2.00017717       0.01539357      -0.82944328      -0.68996820
C       -0.85117528       0.35134970       2.41649153      -0.43539007       0.30542152      -1.33921986
C       -1.25384984       2.51977672       0.71797982      -0.48761818      -0.26879689      -0.37585959
C       -1.34335945       0.11151343       1.12796779      -0.45364559       2.19141666      -0.21626349
C        2.40887751      -0.91509316       0.63213201      -0.41532379      -0.57403040      -0.54061656
C       -0.46549443       1.60686709       2.84524920       0.03826783       1.02618174      -0.74600760
C       -1.56711910       1.23369428       0.26174103       0.80797995      -1.42821570       0.67445604
N        2.35611775       3.06420900       3.22488072       1.18566571       0.09969695      -0.84601474
C        5.04503252      -0.64441190      -1.25619040       0.91413821       0.00923986       0.70590037
C        0.27756711       1.79915240       4.15646221       1.13100534       0.05974562      -1.22037846
C       -4.49360654       1.36878647      -2.69062755       0.01745528      -0.71269187      -1.28246696
C       -3.83981416       1.29683801      -1.35608170      -0.47514699      -0.26607168       0.84373827
S       -2.09087107       0.87732856      -1.45109556       2.02158260       0.12459263      -1.97209987
H        0.42665300      -4.09584329      -0.31425843      -0.16673536      -0.21823956       0.02893143
H        0.58543021      -2.14007185      -1.92401955      -0.06524203      -0.45773617       0.33076766
H        1.55105593      -4.03510043       1.85418000       0.18728875       1.08330082      -0.46267092
H        1.82371237      -0.16659943      -1.35342429      -0.00373222      -0.84730634       0.83518792
H        2.80636790      -1.95504711       2.50348641      -0.07935784       0.26296635      -0.22343296
H       -0.42997298       3.68933322       2.25288250       0.10365367       0.51382497       0.42809657
H       -0.75894234      -0.44671658       3.08598067       0.35217326      -1.19616838       0.70499507
H       -1.45003447       3.38081577       0.06648310       0.28703025      -0.41475234       0.33192412
H       -1.62647460      -0.86233494       0.79415198       0.11598720      -0.45055730      -0.10882570
H        2.84524967       3.97456529       3.26575663      -0.70064990      -0.95433321       0.16788729
H        4.22653581      -1.09367738      -1.78430793      -0.38691430      -0.26116258      -0.18323675
H        5.31046965      -1.29116509      -0.39697108      -0.39319771       0.34106531      -0.39133971
H        5.94041492      -0.62709282      -1.92584179      -0.91390211       0.41762217       0.54216639
H       -0.44023476       1.97024765       4.94154646       0.24964664       0.38985179       0.42764633
H        0.85842460       0.90443011       4.34635069      -0.16447270      -0.32346779       0.12154480
H       -5.59259460       1.31606677      -2.61254332       0.58465799       0.17999752      -0.00860157
H       -4.14618776       0.53570081      -3.32618425      -0.32972602       0.33672828       0.16379270
H       -4.15995977       2.28960779      -3.14393971      -0.27236476       0.16749550      -0.48062289
H       -3.90508697       2.29509523      -0.93028281       0.26305536      -0.14445929       0.51524553
H       -4.38147351       0.56966583      -0.71867798       0.83707973       0.35252732      -0.06245729
17
Properties=species:S:1:pos:R:3:MACE_forces:R:3 smiles="[H:12][C:8](=[O:4])[O:6][C:10]([H:14])([H:15])[C:11]([H:16])([H:17])[O:7][C:9](=[O:5])[H:13].[H:2][O:1][H:3]" total_charge=0 config_type="DES370K Dimers" MACE_energy=-14522.91265323197 pbc="F F F"
O        0.54275000       3.06116009       0.97424996       0.50600767      -1.03641188       0.79215428
H        0.51931000       2.13088012       0.65443003       0.00233921       0.85801687       0.28090366
H        1.03372002       3.01836014       1.82593000      -0.56964264       0.03666920      -1.10166393
O        0.00000000       0.00000000       0.00000000      -1.59737097      -3.57215492       1.21393936
O       -3.56664991      -1.64060998       0.18831000      -1.39618937       0.91679268       3.10120770
O       -0.83299005      -1.38692999       1.66872990       0.44541180       0.70568827      -1.69377554
O       -3.71547985      -0.44450998       2.19456005       0.82386342       0.22164203      -0.81375435
C       -0.40235001      -1.12116003       0.39501998       1.47610692       2.70523253       0.38202237
C       -4.10587978      -1.37009001       1.26732004       1.28641348       0.07032874      -1.69358357
C       -1.22435999      -0.25104999       2.47555995      -0.91047106      -0.99236855       0.67347038
C       -2.53428983       0.37865999       1.94077993       1.57250222       0.24051247      -0.08120104
H       -0.35286999      -2.06731009      -0.17945000      -0.10949343       0.63794632       0.16619556
H       -5.02898979      -1.81668997       1.68694007       0.40797075      -0.05890060      -0.48227087
H       -1.43685996      -0.76073998       3.43498993       0.08005021       0.55740220      -0.37446354
H       -0.42589998       0.49330998       2.65951991      -0.41929956      -0.43335692      -0.63086611
H       -2.55111980       1.33635998       2.49573994      -1.00287552      -0.59161333      -0.29849841
H       -2.36801004       0.61214995       0.87154001      -0.59532315      -0.26542512       0.56018405
7
Properties=species:S:1:pos:R:3:MACE_forces:R:3 smiles="[H:4][N:2]([H:5])[S:1][N:3]([H:6])[H:7]" total_charge=0 config_type=PubChem MACE_energy=-13876.695494514815 pbc="F F F"
S        1.13274868      -0.42983083      -0.35371158      -0.22440979      -0.47473301       0.19956251
N       -0.30618934      -0.16023193       0.46089848     -13.93766766     -10.91050099      -1.85541394
N        0.95041837       0.90083255       0.65295302      14.36324267      11.36598321       2.27324434
H       -0.66870282       0.72359612       0.14545276      -0.82993618      -0.58800950      -0.24181074
H       -0.10356692      -0.02355395       1.44156905      -0.84588042      -1.14982881      -0.28633383
H        0.93397053       1.73477652       0.07047831       0.49373174       0.88390580      -0.00277854
H        1.76556196       0.95865198       1.28660049       0.98091964       0.87318330      -0.08646979
48
Properties=species:S:1:pos:R:3:MACE_forces:R:3 smiles="[H:27][c:6]1[c:10]([c:15]([c:11]([c:7]([c:13]1[c:12]2[c:4]([c:8]([c:14]([c:9]([c:5]2[H:26])[H:30])[C:20]([H:39])([H:40])[N:16]([C:18]([H:33])([H:34])[H:35])[C:19]([H:36])([H:37])[H:38])[H:29])[H:25])[H:28])[H:32])[C:21]([H:41])([H:42])[N:17]3[C:3](=[O:1])[O:2][C@:24]([C:23]3([H:46])[H:47])([H:48])[C:22]([H:43])([H:44])[H:45])[H:31]" total_charge=0 config_type=PubChem MACE_energy=-28222.64465614957 pbc="F F F"
O        0.81823000      -4.64493034      -2.52467582       2.78754422       2.75265274      -1.97509361
O        2.99974372      -4.10592649      -2.98992774      -0.91621659       1.74897653      -1.22955368
C        1.66277804      -3.89264772      -3.08901641      -3.11438048      -2.16209612       1.06427644
C       -0.75868986       2.38187196       1.19416054       0.23249189       0.70139324       0.79749130
C        0.91421815       1.09771158       2.28046646       0.88607711      -0.32899583       0.88124589
C        0.41640322       0.97071942      -1.25157998      -0.38742115      -2.68676430       0.58214173
C       -0.20385973      -1.04493366       0.04434153       0.73123500       2.49348011      -0.69793459
C       -0.75217781       3.31323721       2.30242040       1.06248184      -2.28913246      -1.14332561
C        0.92656409       1.92295184       3.43723085      -1.12945603       1.39253883      -2.30973827
C        0.52506749       0.17500316      -2.40767333      -0.38650399       2.21850781      -2.75046070
C       -0.17144654      -1.68168018      -1.16596219       0.42403965      -0.34405870      -1.36020616
C        0.08258777       1.26210864       1.13548275      -0.33237884       1.66489396       2.35092684
C        0.09666737       0.38387578      -0.02853248       0.09326174      -1.39666610       0.01796290
C        0.08192547       3.14933207       3.39552905       1.88289656      -2.73113284       0.75021687
C        0.21139949      -1.17075989      -2.48913143      -0.64021844       0.54553351       4.74673148
N       -1.03296659       3.74076893       5.51322605       0.47382580       0.71071824       1.19373275
N        1.33858575      -2.81155536      -3.94747207       3.81263303       1.04280836      -0.11562892
C       -2.09895632       2.83078291       5.09541609      -0.32259640       0.18363918       0.51928880
C       -1.28476093       4.82125570       6.54192688       0.89732037      -2.69786222       0.08523194
C        0.06096181       4.09377362       4.58546688      -3.41109158      -0.36560720      -1.83172528
C        0.17720433      -2.01460812      -3.69642684      -1.02032485      -0.19010072      -0.58764117
C        3.81758191      -2.11143157      -1.99949000       0.22915425       0.43610573       0.18580638
C        2.64628269      -1.95990560      -4.23805664      -1.31413654      -2.80027195       1.80307783
C        3.60478379      -2.81040857      -3.35233185       1.67578793       0.42717222       0.10267557
H       -1.41932235       2.59499481       0.34997568       0.13488793      -0.12769498       0.35497516
H        1.69745543       0.30993537       2.26823761      -0.86357976       0.34368806      -0.09417175
H        0.55627358       2.00981929      -1.27798984       0.33556336       1.09660939      -0.19782282
H       -0.47301314      -1.62118647       0.95617237       0.23275553       0.93616674      -0.74660891
H       -1.44932077       4.09912326       2.25900747      -0.55875256       1.03159556       0.03882275
H        1.67804219       1.68016603       4.21625044      -0.88625813       0.52156682      -0.44842922
H        0.67112893       0.83934428      -3.36359307       0.03936633      -1.71634937       1.54987736
H       -0.48193762      -2.67639635      -1.06168804      -0.20649982      -1.54933178      -0.58244608
H       -2.62379883       2.45118191       6.01488306       0.45459039       0.39023775      -0.86278259
H       -1.64576576       1.97275426       4.57711174      -0.25177897       0.29102610       0.37099134
H       -2.87977717       3.23218634       4.38917925       0.59885193      -0.01101496       0.60666206
H       -1.71642492       4.30125453       7.41764309       0.54742012       0.27852967      -0.09539342
H       -0.32294027       5.31582024       6.79950430      -0.64555885      -0.54713564      -0.10024576
H       -1.99676082       5.57183792       6.34102966      -0.89086150       1.04597773      -1.07837541
H        0.98357727       4.21614124       5.06647160       1.25821009      -0.05173217       0.75681674
H       -0.25937609       5.01983358       4.12334444       0.49929860       0.83671777      -0.06415765
H        0.04685389      -1.25574086      -4.47781274      -0.06656664      -0.85256917      -0.52644876
H       -0.60891364      -2.78112052      -3.69493625      -0.38697154       0.83561947       0.16529816
H        4.18389370      -1.04916558      -2.03941915      -0.32397997      -1.12000616      -0.23139269
H        2.85645415      -2.12722347      -1.48045085      -0.05004123       0.32329434      -0.14492428
H        4.46271159      -2.69117353      -1.34117935       0.24880127       0.02849662      -0.26113883
H        2.94317963      -1.90608237      -5.28127811      -0.42892296      -0.26694756      -0.02307987
H        2.57296087      -0.96943591      -3.79236267      -0.26177985      -0.11331798      -0.21198339
H        4.54719879      -3.03096793      -3.91298625      -0.74221826       0.07084175       0.74645912
44
Properties=species:S:1:pos:R:3:MACE_forces:R:3 smiles="[H:29][c:16]1[c:18]2[c:15]([n:4][c:11]([n:5][c:17]2[c:14]([c:12]([c:13]1[C:10]3=[C:9]([N:3]=[C:8]([O:6]3)[H:26])[H:27])[O:7][C:20]([H:32])([H:33])[H:34])[H:28])[C:23]([H:41])([C:24]([H:42])([H:43])[C:25]([H:44])([C:21]([H:35])([H:36])[H:37])[C:22]([H:38])([H:39])[H:40])[N:19]([H:30])[H:31])[C:2]#[N:1]" total_charge=0 config_type=PubChem MACE_energy=-30537.78626748489 pbc="F F F"
N       -2.95205400       2.36362829      -1.81220577      -0.27526291       0.24686681       0.02382609
C       -2.06607316       1.95655562      -1.21160755       0.03862134      -0.20423250      -0.22462936
N       -4.81425092       1.14763292       5.55456593      -1.61758707       1.09787941      -0.38731070
N        0.18650921       1.26080277      -1.26247642      -1.23739760      -0.84807187       0.69688122
N        1.20961370       0.11975147       0.60253248       0.42898382       0.21272803      -3.32990375
O       -4.42296455       1.47758307       3.32477118      -0.52830788      -0.81894420       2.48355637
O       -1.04169653      -0.62002990       4.75947525      -0.36644794      -0.04460801      -0.45855440
C       -5.23752210       1.59930804       4.42162277       0.91241051      -0.26672098       0.13250276
C       -3.60637376       0.67496205       5.28231241       3.04548690      -1.91228760      -1.54840930
C       -3.39636276       0.80045381       3.89323952       2.94858948      -0.39521733       0.65922078
C        1.20187428       0.55357372      -0.70671401      -0.08140776      -0.29113871       2.78230983
C       -1.07210455      -0.11096881       3.47069885       3.21846815      -1.40963916       1.16017291
C       -2.20135353       0.56211707       3.02624967      -1.99481313       1.15064719      -2.48421298
C        0.04019137      -0.17811386       2.65634682      -0.57647542       0.07802983      -1.83785935
C       -0.96009717       1.31393173      -0.55819724       1.48184982       0.41653504       0.01532185
C       -2.20477627       0.98803510       1.65328469      -0.49456220      -0.35258283       1.56158792
C        0.06145673       0.25109317       1.27069362       0.46040600      -0.08030690       2.67099907
C       -1.06910715       0.84743949       0.77633623      -2.22600640       0.65051912      -0.36243010
N        3.05390479      -1.01446436      -1.39631603       0.55411361      -0.20962063       0.71283766
C       -0.09939245      -1.66441653       5.18777944       0.91347097       1.62425852      -3.42640218
C        5.24728348       0.37569953      -3.02915237       1.02957568       3.20683308       0.20983003
C        3.20751430       1.52273651      -4.22927091       0.88670677      -0.43508513       1.55270578
C        2.37669017       0.24967318      -1.63035080      -1.24056418      -1.31009088      -0.02981768
C        3.35478284       1.39942821      -1.71774337      -1.11735926      -1.33264272       0.21092939
C        4.13172914       1.39627369      -2.98238561       0.61269460       2.71118221      -0.44561931
H       -6.05019424       2.18121197       4.31446077      -2.76047975       1.53574972      -0.63681898
H       -2.93787859       0.20531421       6.06371071      -0.98734598       0.70939799      -1.44127780
H        0.98168369      -0.63016245       2.78468635       0.71062006      -0.70361016       1.37663016
H       -3.15175483       1.42673709       1.31022908       0.74286688      -0.10034519      -0.06240833
H        3.68636229      -0.97618816      -0.60590289       0.00851522       0.27484411      -0.00966838
H        2.42075827      -1.75981138      -1.15454076      -0.33622385      -0.03379476      -0.18330677
H       -0.21912483      -1.68043706       6.22587015      -0.09254754      -0.45190234       1.33196734
H       -0.27348242      -2.59070633       4.62492611      -0.36089643       0.12438668       0.56531646
H        0.93960016      -1.35822544       4.87990906      -0.91004948      -0.17404653       0.70914388
H        5.96942427       0.72082802      -3.78480766      -0.15335555      -0.62098783       0.21796182
H        5.72430136       0.35049978      -2.05086181       0.23746994       0.06595754      -0.06409774
H        4.85845425      -0.53378842      -3.18611977      -1.00874757      -3.48267871      -0.93932666
H        2.70569350       0.56384457      -4.35869882      -0.23844635       0.37506197      -0.45461878
H        3.87380649       1.74836471      -5.01805255       0.41967849      -0.12090456      -1.28692087
H        2.54909637       2.38907745      -4.13850734      -0.24744982      -0.44924495       0.16704498
H        1.85143735       0.03128233      -2.56854031       0.15568705       0.78322124      -0.03253344
H        3.99576070       1.27317103      -0.86858247       0.48364758       0.32486267       0.62655945
H        2.75783159       2.27566304      -1.60862944      -0.09760659       0.94249158       0.01823424
H        4.67459967       2.37443616      -2.92023871      -0.34052219      -0.48274826      -0.23941312
20
Properties=species:S:1:pos:R:3:MACE_forces:R:3 smiles="[H:6][C:1]([H:7])([H:8])[C:3]([H:12])([H:13])[C:5]([H:16])([H:17])[C:4]([H:14])([H:15])[C:2]([H:9])([H:10])[H:11].[H:19][O:18][H:20]" total_charge=0 config_type="DES370K Dimers" MACE_energy=-7465.547659613685 pbc="F F F"
C        0.00000000       0.00000000       0.00000000      -0.47752692       1.39527420      -0.46821379
C        3.67947006      -1.89441991       1.84282005      -0.76912032      -0.23158192       0.45170828
C        1.48334003      -0.12978999       0.22602999       1.01760400      -1.08953969      -0.31140876
C        3.41989994      -1.95402002       0.34593999      -0.16769539       0.92230022      -0.57013727
C        1.92094994      -1.58134997      -0.08172000       1.21141119      -0.81038376       1.14800250
H       -0.28292000      -0.19702001      -1.04772997       0.08102452       0.05380306       0.44001735
H       -0.16900000       1.06854999       0.21507001      -0.71359657      -0.38982690      -0.23703670
H       -0.65121001      -0.59875000       0.65881002       0.59195324       0.13706520      -0.17987139
H        4.65059995      -2.32363987       2.14162016      -0.47327727       0.21552638      -0.24947694
H        2.87405992      -2.50872993       2.27935004       0.49453203       0.25822102       0.41815156
H        3.60489988      -0.87334001       2.25321984       0.00676853      -0.45195347      -0.18012303
H        2.09745001       0.49284997      -0.45267001      -0.63778688       0.17135932       0.36857581
H        1.67179001       0.21431001       1.26118004       0.31224314      -0.54807307      -0.47972524
H        3.74577999      -2.95691991       0.00911000      -0.52088662       0.53665680      -0.18925859
H        4.09606027      -1.20817995      -0.11447001      -0.29147269      -0.44646902      -0.20485423
H        1.21650004      -2.22540999       0.47897997       0.42758389      -0.04664942      -0.33288349
H        1.81419992      -1.82214999      -1.15691996      -0.11655273       0.34848152       0.53731053
O        5.56027984      -3.30002999       4.53738022       1.01173790       0.43396979      -0.84697492
H        6.01444006      -3.80408000       3.82468986      -0.52466761       0.65241824       0.87331451
H        5.95480966      -2.39961004       4.49442005      -0.46227543      -1.11059851       0.01288381
31
Properties=species:S:1:pos:R:3:MACE_forces:R:3 smiles="[H:25][c:10]1[c:9]([c:13]([c:17]([c:18]([c:14]1[H:29])/[C:7](=[C:6]([C:2]#[N:1])/[C:5]2=[N:3][c:16]3[c:12]([c:8]([c:11]([c:15]([c:19]3[N:20]2[H:31])[H:30])[H:26])[H:23])[H:27])/[H:22])[O:4][H:21])[H:28])[H:24]" total_charge=0 config_type=PubChem MACE_energy=-23303.121887546375 pbc="F F F"
N       -1.68635843       2.73946764      -0.67937789       2.94103458      -2.39112854       0.88742199
C       -0.83415316       2.00600745      -0.30405281      -3.49466034       2.87611324      -0.84864413
N        1.00440349      -1.18359039      -0.02370081      -1.51838602       0.01714916      -0.46081167
O        3.14296391       2.32003166       2.74172236      -0.34382032      -0.16212790      -0.05557664
C        0.11613127      -0.23563872      -0.34502689       1.96020463      -2.84061664      -0.79572942
C        0.05309775       1.08474030       0.30720667       0.77298319       0.22663236       1.51100707
C        0.75029977       1.40351655       1.46717366       0.16309961      -1.16662360      -1.11999116
C        1.03958424      -4.42950771      -1.98483107       0.06357508       0.99078031       0.90200862
C        0.87580826       4.96506979       3.82695820      -0.85286608      -0.69233573      -0.56627838
C       -0.33119843       4.61077549       3.18588354       1.16322621      -1.19797131       0.09991305
C        0.01370921      -4.10352657      -2.89966128       0.33923279       1.75553754       1.64883063
C        1.36883970      -3.51042220      -0.95631967       0.47048658      -1.16614378      -0.88016103
C        2.05138924       4.20527937       3.65728142      -1.77972122       0.55449090      -0.00719558
C       -0.36714403       3.39080217       2.46357908      -0.79440671       2.13489041       0.31548231
C       -0.64728222      -2.85635183      -2.79717586      -0.34980547      -0.62477747      -1.00789383
C        0.72424315      -2.27289770      -0.90419302       1.80316037       0.37723373       1.47571251
C        1.98132565       3.05472018       2.87733318       1.11227648       0.18216579       0.81761275
C        0.77561318       2.63097574       2.28393449       0.05934062      -0.51465155      -0.86717984
C       -0.24890415      -1.93524573      -1.82268904       0.21188155      -1.07568188       0.14369042
N       -0.61580203      -0.68570302      -1.45261524      -1.63813971       2.78197007      -0.07177096
H        3.81017472       2.61002399       3.39075543      -0.70086542      -0.07321020      -0.54335630
H        1.44860574       0.62955666       1.82400050      -0.46546685       0.26581836      -0.38254368
H        1.60355117      -5.37236927      -2.03980443      -0.50479353       0.52991738      -0.06256998
H        0.76124560       5.79360010       4.50348975       0.73635677       0.32216215       0.04326498
H       -1.20490954       5.24777796       3.30788615       0.17133148      -0.38811584      -0.05103941
H       -0.25286601      -4.80700967      -3.63556192      -0.40867868      -0.51558727      -0.82187084
H        2.18658425      -3.78040883      -0.27817450      -0.50369271       0.36776815      -0.14987149
H        2.96620943       4.50727798       4.14471175       0.07274883      -0.09903239      -0.03479481
H       -1.32904194       3.13328244       2.01871779       0.53678623      -0.27292898       0.03298984
H       -1.45753190      -2.62710831      -3.50800274       0.51669197      -0.06493735       0.44658457
H       -1.29409454      -0.12863336      -1.96495316       0.26088607      -0.13675911       0.40276040
38
Properties=species:S:1:pos:R:3:MACE_forces:R:3 smiles="[H:21][C:8]1=[C:10]([C:17]2([C:20]3([C:19]([C:11](=[C:9]([C:15]([C:18]3([C:7]1=[O:2])[H:37])([H:32])[H:33])[H:22])[H:23])([C:16]([C:6](=[O:1])[O:5]2)([H:34])[H:35])[H:38])[C:14]([H:30])([H:31])[O:4][C:13]([H:27])([H:28])[H:29])[H:36])[O:3][C:12]([H:24])([H:25])[H:26]" total_charge=0 config_type=PubChem MACE_energy=-26097.36447764138 pbc="F F F"
O        4.01153614      -0.13165925      -1.06555317      -3.58167942      -0.30351920       0.46499822
O       -1.99501965       0.75357657       3.24675371       1.44204283       0.33104391      -1.62149894
O        0.35350207      -2.79006217       1.30623808      -1.04971270       1.41859716      -0.95553567
O       -0.76093969       2.28172054      -1.05886910      -0.16790717      -0.46462369      -0.79020101
O        1.88999667      -0.76132915      -0.46812914      -0.10396139      -0.64157284       0.45243874
C        2.82673814       0.17020660      -0.82391284       4.40827970       0.13909210      -0.36863321
C       -1.13022110       0.48453538       2.38843216      -1.67085142      -0.04794773       2.20465169
C       -1.04510532      -0.92878697       2.02632024       2.79492172      -2.16970600      -2.83425570
C        2.29652395       2.07727720       2.85238244       0.16372045       0.12608297      -4.74827220
C        0.06011444      -1.42640874       1.21868284      -2.89100961       0.28343118       3.21712540
C        2.65948870       2.16954245       1.50045063       1.68551984       0.43376303       4.53966269
C       -0.40760700      -3.51352737       0.31774079       0.98112974       0.39534844      -1.29189114
C       -1.42746542       2.20581188      -2.38367985       1.54758141       0.81254747       1.39040810
C       -0.45232341       0.95898482      -0.57298444       1.49645392       0.64006875      -1.44856656
C        0.92512329       1.61985292       3.15321304      -0.71422610      -0.60015474      -0.21440944
C        2.47087981       1.63837626      -0.89000211       0.21844837      -0.34333324      -1.28511872
C        1.13537427      -0.48424480       0.73910002       0.27225816       2.14865146       0.57365869
C       -0.05300156       1.46706416       1.96415379      -0.38491605      -0.61566579      -0.47341679
C        1.69038775       1.97455778       0.39150639       1.20312674       1.97663191      -2.43826231
C        0.62385041       0.98637020       0.64333849      -2.96488122      -0.52086595      -0.53237005
H       -1.82519934      -1.61305092       2.48338403       1.46254596       0.84393556      -0.61335949
H        2.91863920       2.42977025       3.64664557       0.48012556      -0.24471531       0.22011698
H        3.76491549       2.44838657       1.33432534      -2.08011558      -0.31056064      -0.26385777
H       -0.22158549      -4.56023261       0.49474323      -0.77312246      -0.27962110       0.48336704
H       -1.42827521      -3.13011429       0.14617386       0.22668352      -0.64049842       0.90842995
H        0.06593909      -3.35752938      -0.65136490       0.17579110       0.20193232      -0.19048713
H       -1.33231018       3.17199971      -2.94315336      -0.14491434      -0.83206388       0.91598519
H       -2.42162273       1.92134192      -2.17140243      -1.32733555      -0.02225727      -0.20952829
H       -0.96350787       1.41835191      -2.95292518       0.28593154      -0.24221971      -0.37968147
H       -1.32608185       0.40038658      -0.29393546      -0.59310535       0.03410758       0.44420597
H       -0.06941859       0.40806378      -1.50565670       0.05199824       0.43507105       1.67819113
H        0.49490923       2.27232446       3.89367296      -0.45551613      -0.07509017       0.35238645
H        0.88838490       0.60194761       3.50558497       0.71323355      -0.29126493       1.12267689
H        3.39594414       2.24089255      -1.07130823      -0.55703553      -0.77233692       0.90132336
H        2.01501014       1.79459681      -1.89867065      -0.73354486      -0.11031375       1.10180784
H        1.79679408      -0.47398303       1.60772946       0.69298637      -0.27413069      -0.23770684
H       -0.54169819       2.41521551       1.84375503      -0.20150793       0.41869466      -0.61292472
H        1.22606446       2.96850779       0.15595471       0.09256405      -0.83653757       0.53854313
43
Properties=species:S:1:pos:R:3:MACE_forces:R:3 smiles="[H:35][c:19]1[c:16]([c:17]([c:21]([c:23]2[c:22]1[c:18]([n:7][c:13]([c:20]2[H:36])[H:32])[O:8][C:26]([H:39])([H:40])[C:10]3=[N:4][C:9](=[N:3][N:24]3[C:27]([H:41])([H:42])[H:43])[H:29])[H:37])[S:28](=[O:1])(=[O:2])[N:25]([H:38])[c:14]4[c:15]([c:12]([n:5][c:11]([n:6]4)[H:30])[H:31])[H:33])[H:34]" total_charge=0 config_type=PubChem MACE_energy=-45301.01171250293 pbc="F F F"
O        0.52333201      -3.72283504      -1.00639842      -0.42159078       1.22625460       0.68480606
O       -0.97190950      -2.73831174      -2.69103739       1.09785502       0.87219410       2.73506764
N        3.20908310       3.81892969       4.10465981      -0.28120175      -0.94318512       0.75388040
N        2.18685557       3.86091354       2.07238462       1.38663107       0.95083015      -0.20454559
N        4.60042431      -2.91035555      -3.54247234       0.64010833       0.13439002      -0.74746736
N        3.28538205      -1.84898326      -2.00540564       0.96238203       0.96086717       2.96351296
N       -3.04607389       2.50557603       2.00754752       1.90773529       0.14535866      -0.47893399
O       -0.98866175       2.39320924       3.01005199       0.87716960      -1.31688009       2.71949959
C        3.35665610       3.97220018       2.84235861      -0.61547984       0.22068870      -3.16991580
C        1.28947952       3.68922498       2.97565677      -1.79481665      -2.53397723       2.15218444
C        4.41923620      -2.39579675      -2.29729149       1.35938053      -1.03441546      -1.70364373
C        3.56034567      -2.90124175      -4.41660211       0.04851596      -0.64053983       1.49162361
C       -3.79594467       2.11995258       0.95423668      -1.47395137       0.51561890       0.82058036
C        2.21269741      -1.98768804      -2.73885987       2.19521299      -1.28204068      -0.74564697
C        2.29075100      -2.60124228      -3.94939801      -1.89305495      -0.82405002      -1.63584923
C        0.14070591      -0.88455389       0.71204603      -0.10804380      -0.33874410      -0.30321836
C       -0.72439263      -1.33961627      -0.33008704      -1.20330163       1.82011884      -0.55625939
C       -1.82901046       1.98281910       2.05569484      -1.55518279       0.70319917       0.25618223
C       -0.19810293       0.21422237       1.45345607       1.19110066       0.35483570       1.19138597
C       -3.50740526       1.10306825       0.13218492       0.20143213      -0.39261677      -0.69063921
C       -1.89554975      -0.60493038      -0.61636302       0.71034113      -1.29219692       0.76072930
C       -1.37716506       0.94568451       1.23804595      -0.71572437      -1.71389666      -0.76047561
C       -2.29025147       0.45563694       0.28371059       1.17539185      -0.84589043      -1.38469662
N        1.89205601       3.52276947       4.19003536      -0.77967877       1.28160001       0.37974552
N        1.13966044      -1.49243138      -2.12007758      -3.13584531       1.72595889       2.20193158
C       -0.23671416       3.53906037       2.77502396      -0.32364271       2.77158462      -1.64492781
C        1.29996695       3.14606287       5.44121458      -1.12784542       0.93439861       1.44868179
S       -0.07216058      -2.51201389      -1.52768634      -1.08291288      -1.50561504      -3.76481280
H        4.24834134       4.14806940       2.27598812       0.52429974       0.15631479       0.51516468
H        5.28057673      -2.47059462      -1.49588535      -1.88222162       0.27768816      -1.97088964
H        3.59977510      -3.24313543      -5.47064254       0.85358714       0.08659368       0.95730959
H       -4.75256774       2.61208918       0.83660819       0.02968620       0.16049236       0.20798341
H        1.35118820      -2.92399833      -4.47448775       1.20038626       0.80187159       0.25510107
H        1.07783659      -1.41943095       0.84018534      -0.18157397       0.11316844       0.38738823
H        0.39459511       0.56845787       2.32448795      -0.10686809      -0.52897646      -1.00346754
H       -4.17209385       0.77767382      -0.63493738      -0.42316537       0.02366157      -0.34113369
H       -2.55578992      -0.88283668      -1.45551155       0.54811212       0.12910738       0.57207649
H        1.50576391      -0.98816321      -1.30682454      -0.22748894      -0.01888835      -0.37598424
H       -0.80470822       4.43111708       3.16884424       0.87454669      -0.83413161       0.20145630
H       -0.37744049       3.64193251       1.71957006       0.61386653       0.83133458      -0.89785308
H        0.28410535       3.66669275       5.62278463       1.57172817      -1.14283625      -0.57192680
H        1.93839016       3.43946745       6.28828051      -0.04585490       0.22289866      -0.63316692
H        1.26335790       2.06794919       5.50953152      -0.59002351      -0.23214837      -0.07083685
8
Properties=species:S:1:pos:R:3:MACE_forces:R:3 smiles="[H:2][N:1]([H:3])[H:4].[H:6][N:5]([H:7])[H:8]" total_charge=0 config_type="DES370K Dimers" MACE_energy=-3078.62864947018 pbc="F F F"
N        3.43764019      -4.22199011       2.65998006      -0.16601761       3.14683219      -0.65408105
H        3.76347995      -4.10220003       3.62439990      -0.15652661      -0.08938333      -0.53607197
H        3.40050006      -3.28781008       2.23979998      -0.21195743      -0.27782838       0.39200118
H        4.16586018      -4.74391985       2.16208005      -1.54781856       2.37476971      -0.18673459
N        4.33598995      -6.30909967       2.84760999       0.80181868      -2.63813356      -0.60519799
H        3.38878989      -5.99124002       2.61870002       0.64940883      -0.87005829       0.37847268
H        4.52787971      -7.12400960       2.25623989       0.10803920       0.21018743       0.55013831
H        4.97883987      -5.56781005       2.55115986       0.52305350      -1.85638578       0.66147343
15
Properties=species:S:1:pos:R:3:MACE_forces:R:3 smiles="[H:9][c:3]1[c:4]([c:6]([c:8]([c:7]([c:5]1[H:11])[Cl:1])[Cl:2])[H:12])[H:10].[H:14][O:13][H:15]" total_charge=0 config_type="DES370K Dimers" MACE_energy=-33421.06114801696 pbc="F F F"
Cl       0.00000000       0.00000000       0.00000000      -0.42444132       0.44785951       0.10692948
Cl       0.96859998       2.33794999       1.87989998      -0.44238397       0.33063470       0.03136531
C       -3.19313001       2.44736004      -0.13849000       0.77289093       1.47855129       1.29096960
C       -2.73835992       3.55107021       0.69813001      -0.26038216      -1.72321388      -0.87502322
C       -2.27253008       1.43529999      -0.41391000      -0.13746506      -0.16567374       1.18389376
C       -1.46578002       3.51631999       1.25857997      -0.38809822       1.01056961       0.50404379
C       -1.04097998       1.38646007       0.29604000       0.18939003       0.30724549      -0.51318469
C       -0.59479999       2.43277001       1.14315999      -0.91802076      -0.89206382      -1.34460320
H       -4.23915004       2.37670994      -0.46476000       0.70902622       0.21153926      -0.11014071
H       -3.31914997       4.43900013       0.98073995      -0.10172257      -0.69304596      -0.56007818
H       -2.57333016       0.58099001      -1.03463006       0.35801291       0.48297145       0.32959394
H       -1.26122999       4.43471002       1.82455003       0.61254176      -0.78572862      -0.03098300
O       -6.55510997       3.05103016       1.72736001       1.26116005       0.09826933       0.57024830
H       -5.97106981       3.84039020       1.79114997      -0.69012391      -1.00033819      -0.02306502
H       -6.06756973       2.34246993       2.20537996      -0.54038391       0.89242358      -0.55996615
39
Properties=species:S:1:pos:R:3:MACE_forces:R:3 smiles="[H:18][C:4]1=[C:5]([C@:16]([C@:17]([O:2][C:3]1=[O:1])([H:39])/[C:9](=[C:8]([H:21])/[C:6](=[C:7]([H:20])[C:14]([H:34])([C:11]([H:26])([H:27])[H:28])[C:12]([H:29])([H:30])[H:31])[C:13]([H:32])([H:33])[C:10]([H:23])([H:24])[H:25])/[H:22])([H:38])[C:15]([H:35])([H:36])[H:37])[H:19]" total_charge=0 config_type=PubChem MACE_energy=-20019.973267182635 pbc="F F F"
O        1.80923476      -3.03820393       0.87848040      -0.28028550       0.75500209      -1.63110848
O        2.50087371      -1.16516874      -0.26838592       0.36137047      -0.89716550       0.06615036
C        2.36075499      -1.96025083       0.84824237       0.32051923      -0.73782458       0.65977272
C        2.98770478      -1.56498310       2.11130216       2.27535521       3.40562852      -0.47274357
C        3.84587171      -0.48077152       2.13513305      -2.21835810      -1.80072354      -0.53261617
C       -0.70924924       1.43919434       0.37212293      -3.00648096       0.08814240      -0.87768544
C       -2.00497911       1.02710148       0.05447986       2.74266192      -0.32106471      -0.31901705
C        0.50172235       0.83281761      -0.23455772       2.39105210       0.29520645       1.39488515
C        1.78794994       1.03598365       0.24613177      -2.81414367       0.28006818      -0.01483141
C       -0.44737867       2.10407963       2.82454564       0.32571925       0.12435048      -0.24924673
C       -2.63067863       0.50566701      -2.31790183      -0.33505806      -0.68997045      -0.27529898
C       -3.58219621      -0.86944816      -0.35003410       0.26168206       0.01375631      -0.63672794
C       -0.64861200       2.59731414       1.37063279       0.94080942      -0.33065041       0.40925301
C       -2.38030074      -0.08722792      -0.92955599      -0.08506710       0.32171401       0.92416187
C        4.70125343       1.73997750       1.17466481      -0.31612347      -0.74916697       0.01204349
C        4.17180826       0.30039374       0.83992898       0.21261177       0.15650350       1.33393774
C        3.00180699       0.19932269      -0.15064207      -1.60576855       0.64579740       1.51257705
H        2.78837039      -2.18662832       2.96741059      -0.15714644       0.10380434       0.01264869
H        4.16641285      -0.18236671       3.12473299       0.63749554       0.26066159      -0.26813426
H       -2.84678504       1.50122830       0.54747082       0.12668951       0.16089235      -0.00288372
H        0.42819046       0.09440252      -1.02145145      -0.47415554      -0.05692538       0.09015684
H        1.84893193       1.79917814       1.02387311       0.49025387      -0.33034146      -0.13630100
H        0.32448777       1.30885549       2.83483936      -0.57283913       0.35739762       0.20883197
H       -0.10127989       2.93818261       3.45593645      -0.16964714      -0.37853623      -0.13369685
H       -1.40484855       1.73988440       3.21572544       0.42705844      -0.14706973      -0.00326523
H       -2.90583608      -0.31572924      -3.02974174       0.06590568       0.79414458       0.52507822
H       -3.44243071       1.26215198      -2.27542398       0.59436124      -0.42058680      -0.19848598
H       -1.68764684       0.93710460      -2.66593430      -0.36632994       0.21161519      -0.08220648
H       -4.50246666      -0.28148774      -0.39731715       0.08904268      -0.02158082      -0.06610989
H       -3.72926757      -1.80484388      -0.91680763      -0.04715800       0.38333745       0.32421643
H       -3.39015481      -1.09388063       0.69498261      -0.02426660      -0.20808485       0.03478724
H        0.18195754       3.27035572       1.13310149      -0.08973331      -0.12648096      -0.16140518
H       -1.54793522       3.21439721       1.35112472       0.01827213      -0.25347361      -0.31885360
H       -1.54996154      -0.79189668      -1.00367401      -0.00428759       0.09155255       0.02799766
H        5.73305943       1.67122891       1.61385562      -1.14901198       0.11483323      -0.31231597
H        4.74051191       2.33874085       0.26727890       0.13702371       0.02813053      -0.01317750
H        3.99490716       2.22896125       1.85897019       0.47320782      -0.04584661      -0.06865800
H        5.00562956      -0.20195732       0.37859220       0.32140641      -0.41758703      -0.24662728
H        3.26847984       0.57623193      -1.12422058       0.50336261      -0.65945912      -0.51510170
48
Properties=species:S:1:pos:R:3:MACE_forces:R:3 smiles="[H:30][c:10]1[c:14]([c:20]([c:15]([c:11]([c:18]1[C:7](=[O:1])[N:24]([H:42])[c:19]2[c:12]([c:16]([c:21]([c:17]([c:13]2[H:33])[H:37])[S:29](=[O:2])(=[O:3])[F:4])[H:36])[H:32])[H:31])[H:35])[N:25]3[C:9](=[N:6][C:8](=[N:5][C:28]3([C:26]([H:43])([H:44])[H:45])[C:27]([H:46])([H:47])[H:48])[N:22]([H:38])[H:39])[N:23]([H:40])[H:41])[H:34]" total_charge=0 config_type=PubChem MACE_energy=-47633.378533129064 pbc="F F F"
O        0.06275036       0.39073782      -2.84241436       0.50763554       0.19285685      -0.10616423
O       -5.76032493      -4.16476342      -4.76989458       1.78753698       2.10237519      -0.96276343
O       -3.78531835      -4.71309039      -6.13673684      -1.23603810       3.73681138       1.83006181
F       -4.77234695      -2.44715903      -6.31785152      -0.15219691      -0.09583821       0.17186944
N        2.55740573       2.78184082       5.19378330       0.58748477      -0.24446526      -1.37408796
N        4.56114580       1.85295942       4.36341550       1.47723006      -0.19477752       0.53795849
C       -0.06894515       0.06554707      -1.67936513      -2.14527480      -0.83879014      -2.82834330
C        3.78243734       2.36574902       5.32093002      -2.97420572       0.48862291      -1.10395427
C        4.08891012       1.65030136       3.17975881      -1.33466296       1.40166807       2.18939511
C        1.21640440      -0.37739048       0.34003814      -0.40150085       2.16612589       0.40440963
C        0.97633060       1.92250838      -0.48289249       1.48667373       0.32466612       1.20663217
C       -1.28197656      -2.22294829      -3.40589783      -2.86316448       0.46105784       0.99319218
C       -3.17301962      -1.78499005      -1.95538066      -2.18055552       0.36391141      -0.23313158
C        1.97200706       0.05162998       1.46373453      -1.19623773      -1.40677597      -0.76056326
C        1.75545992       2.32997431       0.64296721      -0.50027906      -1.84792487      -0.29220911
C       -2.14891813      -2.80058048      -4.31479881       0.29686485       0.35981460      -0.16266576
C       -4.02156112      -2.43668888      -2.87587664      -2.43876074      -0.49520077      -0.19746734
C        0.67232383       0.56834700      -0.60052905       2.71090510      -0.15920795       3.31765706
C       -1.83104513      -1.61960480      -2.23830840       1.33273434       0.35939381       0.26823791
C        2.18671896       1.39778765       1.67045607      -0.93554584       1.89142572      -1.15009308
C       -3.51786420      -2.91441223      -4.09943244       0.33871107       0.38982969       0.79007865
N        4.23377492       2.49049558       6.56239940      -2.41788519       2.06003984       2.03655563
N        5.05496218       1.33024981       2.32235553      -3.55544598      -1.46868802      -5.11115915
N       -1.04096077      -0.83122394      -1.32085905      -1.35387696      -1.37027197       1.29815056
N        2.71622851       1.88611331       2.90166142       1.81154104      -1.80068710      -0.61971081
C        2.22547128       4.25662949       3.28491928       1.94994004      -0.64567904       0.53317735
C        0.54336331       2.72994306       4.10326984      -1.41672974      -0.22800667       1.39469122
C        2.00612082       2.80998328       3.84182169       1.39590674       3.28545083       0.80194761
S       -4.51577518      -3.66043851      -5.35924432      -0.29564293      -5.53801203      -0.13712446
H        0.87582635      -1.39570615       0.32243583       0.26606433      -0.28559212      -0.34703528
H        0.69545925       2.64159204      -1.27254603       0.08548120      -0.55463518       0.67443083
H       -0.31177816      -2.18724010      -3.75012395       2.04844074       0.51843144       0.09750574
H       -3.72312496      -1.24149916      -1.13295684       1.18132543      -0.80670840      -0.75295000
H        2.21447720      -0.74156938       2.19243993       0.13760222       0.88477321      -0.28268274
H        2.05429449       3.34850218       0.70498579       0.01750829       0.53181649       0.30469769
H       -1.68594906      -3.04051993      -5.25045392      -0.23358756      -0.59568435      -0.36649992
H       -5.19419334      -2.55255268      -2.68785856       2.93148815       0.36599976      -0.30690295
H        3.75608899       3.34152247       6.96264745       1.11191511      -1.76964661      -0.11229449
H        5.16294481       2.37588360       6.71850731       3.03910898      -0.22079466       0.53532335
H        4.71953013       1.12034657       1.33238741       1.32849552       0.49718103       1.97798678
H        5.99311306       1.48160484       2.53984954       1.16518666       0.10696315       0.51579573
H       -1.33357046      -0.80897043      -0.30952606       0.40306998      -0.24095551      -1.90218871
H        1.64151897       4.60855343       2.49312391      -0.94537763      -0.37641315      -1.81031851
H        1.91042902       4.94027521       4.01664593       0.06204221       0.74428473       1.51419602
H        3.29240181       4.43296888       3.05717613      -0.46057950      -0.04513399       0.11322060
H        0.46635242       2.04822662       4.98933842      -0.54851316       0.33328327      -1.14778053
H        0.07731872       3.75532391       4.47888972       1.23755300      -2.18217559      -1.15802583
H        0.09560808       2.36625781       3.20351626      -1.11238473      -0.15471815      -0.28105481
23
Properties=species:S:1:pos:R:3:MACE_forces:R:3 smiles="[H:17][C:11]([H:18])([H:19])[C:13]([H:23])([C:12]([H:20])([H:21])[H:22])[N+:9]1=[N:3][O:5][C:7](=[C:8]1[C:10]([H:15])([H:16])[C:6](=[O:1])[O-:2])[O:4][H:14]" total_charge=0 config_type=PubChem MACE_energy=-18598.979608457445 pbc="F F F"
O        4.28159215       0.44934409       1.49369361      -1.31543477      -0.53096478      -0.07705304
O        4.32045605       0.44314991      -0.79552123      -1.36328451      -0.45769163       2.84849118
N       -0.66303835       1.06195357       2.16647103       0.09287335      -1.20852424       1.42658304
O        2.44500854      -0.38177184       3.16180899      -4.22892119       1.46473389       0.76692861
O        0.21962698       0.56727296       3.16876509      -0.81793285       1.17097565      -0.32749322
C        3.76532103       0.30086037       0.34441852       1.73226382       0.87469642      -2.07568116
C        1.34432509       0.20591672       2.60286667       2.92293306      -1.85627843      -1.67886702
C        1.20718249       0.33470899       1.22353735       0.87338391      -0.30264067      -0.02474142
N       -0.07535748       0.82248040       1.04883411       3.49505355      -1.06794562       1.71325450
C        2.25414695      -0.08822802       0.18743431      -1.72398578      -0.59264570       0.26586337
C       -1.39694545      -0.39119766      -0.58868907      -1.15024639      -0.55099434      -1.32160201
C       -1.66799329       2.25168278      -0.10831777       0.68115060      -0.81405709      -0.70377304
C       -0.73895512       0.91429319      -0.21286611      -2.30216378       2.81514980      -0.32563098
H        3.23246195      -0.07433597       2.63602402       1.38136898       0.53608033      -1.18212265
H        1.93076279       0.44428829      -0.69683883       0.18454717      -0.53668197      -0.56628213
H        2.17850556      -1.21982870       0.06097688       0.08485533       1.51307216      -0.10972495
H       -0.66459201      -1.19953260      -0.47635398      -0.27130704       0.11901013      -0.20408531
H       -2.33930466      -0.68607316      -0.09571121       0.63893639       0.48296982       0.32475004
H       -1.70757887      -0.30093227      -1.67492578       0.68067718      -0.20063489       1.16967311
H       -1.15843937       3.19037702      -0.47366724      -0.32050987      -1.22574767       0.62691882
H       -2.53524993       2.09586563      -0.72845111      -0.21016628      -0.04933577      -0.46267781
H       -2.05259678       2.34428122       0.90379157       0.26992636       0.22278870      -0.13532839
H       -0.00826273       1.08650084      -0.97620414       0.66598277       0.19466591       0.05260045
34
Properties=species:S:1:pos:R:3:MACE_forces:R:3 smiles="[H:25][c:9]1[c:10]([c:12]([c:14]2[c:13]([c:11]1[H:27])[C:3](=[O:1])[N:16]([C:4](=[O:2])[N:15]2[H:29])[C:19]3([C:18]4([C:20]3([C:17]([C:7](=[C:5]([C:6](=[C:8]4[H:24])[H:22])[H:21])[H:23])([H:30])[H:31])[H:34])[H:32])[H:33])[H:28])[H:26]" total_charge=0 config_type=PubChem MACE_energy=-23908.706955845046 pbc="F F F"
O        0.11954852      -0.30484263       2.69890024      -0.44268481      -0.28957103      -0.39559507
O        0.64719651       3.12682678      -0.23734281      -0.83802294      -1.00350690       0.44141027
C        0.77246880       0.55742001       2.15248813      -1.20716300      -0.96087092       0.99137124
C        0.97442805       2.39423408       0.70285844      -0.79012251       2.86763588      -3.62006106
C       -1.78233741      -1.41780708      -2.84225986      -1.04928451       1.73661187       0.70825402
C       -0.50709531      -1.73253820      -2.10768983      -0.37309589       0.70265748       1.92122071
C       -2.70102689      -0.38421241      -2.68079064       2.02997996      -1.00269071       0.44049476
C       -0.20712433      -1.33124528      -0.81878135      -1.28368722      -0.70847517      -1.43670006
C        3.99629785       0.23753383       4.03115561      -0.65538846       0.02725737      -0.62625307
C        4.64546968       1.42550739       3.62155964       0.24654363      -1.19142539       0.88605372
C        2.71180059      -0.05758748       3.53435638       1.05739145       0.59124186       0.82656840
C        4.05497505       2.26831605       2.71123578      -0.26727848       0.27055346      -0.00245059
C        2.10224261       0.86172791       2.67526056       0.36036777       0.27060397      -0.42103000
C        2.75682642       2.01442434       2.24710443       1.06886663      -0.44652014       0.04040777
N        2.14398601       2.79827692       1.28121414       0.68021710      -1.07750086       1.56037631
N        0.24677252       1.28612670       1.08494308       1.16644273      -0.08821791       0.43844152
C       -2.59721181       0.81181317      -1.74054787       0.29900510       1.52779731      -0.14696327
C       -1.23191378      -0.49698553      -0.10939584       1.07907007       0.81859494      -1.16158730
C       -1.05222330       0.88220312       0.52376342      -0.97541691       0.03083800       0.33664985
C       -1.27565870       0.76640595      -0.98630176      -1.16284531       0.09685312       0.75501620
H       -2.07342527      -2.08762500      -3.64382074       0.35055552      -0.16557105       0.11239543
H        0.19550609      -2.39433859      -2.58879278      -0.02722289      -0.00853048      -0.22083407
H       -3.56252000      -0.39135490      -3.32914588      -0.07705930      -0.06004881      -0.10149338
H        0.70269885      -1.60289380      -0.33567701       0.55428381      -0.32999221       0.10996119
H        4.51230671      -0.47636435       4.67133286      -0.22508349       0.32119744      -0.05881960
H        5.63787224       1.61418941       4.07279493      -0.68211224       0.11053801      -0.66350365
H        2.16668143      -0.94139085       3.87245633       0.20460314       0.36863561      -0.37182297
H        4.59985640       3.11498024       2.34175255       0.06339835       0.36693576      -0.05135225
H        2.63526394       3.57702687       0.82789182      -0.72256502      -0.76238031       0.31565619
H       -3.41546533       0.84789189      -1.01826642      -0.13378921      -0.28091384      -0.10964732
H       -2.68897984       1.79560759      -2.29462669       0.03207058      -1.14638032       0.22912560
H       -2.19516156      -0.98869095       0.09780159       0.58364613       0.44699718      -0.21030753
H       -1.91553566       1.19616666       1.20828356       1.37651149      -0.49675383      -1.20072584
H       -0.42449341       1.02322345      -1.63168857      -0.24013130      -0.53559939       0.68574384
14
Properties=species:S:1:pos:R:3:MACE_forces:R:3 smiles="[H:8][C:3]([H:9])([H:10])[N:2]([H:7])[C:5]([H:13])([H:14])[C:4]([H:11])([H:12])[O:1][H:6]" total_charge=0 config_type="DES370K Monomers" MACE_energy=-6797.930893731521 pbc="F F F"
O       -2.19153428      -0.62915766       0.17711988      -1.33622780      -1.37334998      -3.06618418
N        0.52916902       0.03233330      -0.22787793      -0.87301209      -1.21832180      -0.21630293
C        1.90795231       0.36151114      -0.14380427       2.15112026      -2.08278988       0.79980217
C       -1.55950892       0.54815167       0.57616842      -0.08697319      -1.56691379       1.78307078
C       -0.24472242       0.08124784       1.04822922       2.34944591       1.53093324      -2.34991428
H       -1.95941257      -0.84534711      -0.77997982      -0.52270478       0.66874528       2.12602567
H        0.35262138      -0.86165416      -0.75241327       0.44447365       1.38883814       1.08669524
H        2.56130099      -0.59653705      -0.30708844      -0.72233403       1.70483719       0.48830986
H        2.16839290       1.03894973      -0.92258423       0.47112674       0.71247142      -0.48750783
H        2.18295312       0.80096149       0.86307955      -0.31652788      -0.49053009      -1.22350333
H       -2.03126597       0.90204483       1.45905065      -1.32649509       0.60839532       0.40947290
H       -1.46976066       1.26597095      -0.19782880       0.05048328       0.79008468      -0.45338528
H        0.20117743       0.83881927       1.68022692       0.37766286       0.03432791       0.16783308
H       -0.18892212      -0.87935114       1.49177491      -0.66003784      -0.70672763       0.93558813
20
Properties=species:S:1:pos:R:3:MACE_forces:R:3 smiles="[H:15][C:10]([H:16])([H:17])[N:9]([C:11]([H:18])([H:19])[H:20])[N:8]([H:14])[C:7](=[S:6])[C:13]([C:12]([F:1])([F:2])[F:3])([F:4])[F:5]" total_charge=0 config_type=PubChem MACE_energy=-32711.572292044104 pbc="F F F"
F       -1.29505489      -0.91917882      -1.47232912       0.40309931       1.33207789      -1.10790854
F       -1.72515247       0.36767464      -3.27358267       0.89408036      -0.06293782       1.66994401
F       -2.66014574       0.72305741      -1.33395073       1.60047093       0.45342007      -0.51841055
F       -0.71298227       2.50606729      -1.05845020       0.30026459      -1.44000517      -0.41595903
F        0.55932056       1.51194324      -2.58559320      -1.25944671       0.19545554      -0.05538125
S        2.11674192      -0.18724392      -1.00313768      -1.48190755       0.93084721       0.37660475
C        0.77187299       0.67370381      -0.49237631       1.09608064      -1.11730663       2.87735039
N        0.48215146       0.88712003       0.86832228      -0.51816983       0.03232534      -0.46907900
N        1.31687083       0.40762071       1.96119096      -1.02409478       1.17415182      -0.89617217
C        1.52842917      -1.03411434       2.18970897       1.37967313       1.95467989      -0.18563966
C        1.79335167       1.46449627       2.92536523      -1.48871900      -2.89625055      -1.73625439
C       -1.47392295       0.36322684      -1.93733142      -1.65246541      -1.09766071       0.57381426
C       -0.22237895       1.27411910      -1.50629089       0.36292468       0.82117193      -0.25753144
H       -0.46563855       1.36649283       1.07134470       2.26207229      -1.20777451      -0.08532158
H        0.66567273      -1.63268230       2.02542915      -0.50331245      -0.48562524      -0.23360201
H        1.92418291      -1.13350687       3.18240549      -0.58654870       0.02032477       0.90942085
H        2.42173102      -1.29161332       1.64262190      -0.27544728      -0.81486763      -0.88600165
H        1.92629292       2.30635108       2.37651815       1.46763766       2.39734223      -1.85191229
H        2.62985685       1.14815052       3.49382641       0.71303200      -0.28270483       0.23635635
H        1.00234475       1.78186014       3.50985339      -1.68922388       0.09333640       2.05568295
46
Properties=species:S:1:pos:R:3:MACE_forces:R:3 smiles="[H:36][c:19]1[c:20]([c:22]([c:24]([c:23]([c:21]1[H:38])[H:40])[O:6][C:27]([H:43])([H:44])[c:11]2[c:15]([c:17]([c:13]([c:9]([n:3]2)[C:7](=[O:1])[N:26]([H:42])[c:10]3[c:14]([c:18]([c:16]([c:12]([n:4]3)[C:28]([H:45])([H:46])[C:8](=[O:2])[N:25]([H:41])[O:5][H:29])[H:33])[H:35])[H:31])[H:30])[H:34])[H:32])[H:39])[H:37]" total_charge=0 config_type=PubChem MACE_energy=-35203.86616138051 pbc="F F F"
O       -1.13223217      -2.98532865       1.54339065       0.60720345       1.44223483       0.25452937
O        2.09741940      -0.40143184      -5.59702060      -0.07354355       0.48815510       1.08148622
N       -0.65214286       0.57448881       1.49257888       0.13358342      -0.19975787       0.13987227
N        0.30054557      -1.71817515      -1.99975274      -0.14099732      -0.15636942       0.08012505
O        3.30294564       0.93533542      -3.34478018      -1.02189215      -0.28903071       0.55828248
O       -0.49617956       4.11585690       2.49667658       0.61419823      -0.85721700      -0.79332012
C       -0.62555239      -1.89158819       1.30282815      -0.49777957      -1.45915429      -1.04368982
C        1.58675541      -0.50295160      -4.48132465       1.76026009       0.49164743      -0.70346421
C       -0.98521397      -0.63041399       2.01662078      -0.17553441       1.70979330       1.63819698
C        0.19240366      -2.46617815      -0.89701781       1.30512270      -0.32047051      -1.56590370
C       -0.95174656       1.68729808       2.17502537      -0.25976839      -0.28492789       0.18070292
C        0.40827579      -2.33294675      -3.16475198      -0.64266947      -0.31165470      -0.73083535
C       -1.60579774      -0.68910453       3.27068903      -0.20996442      -1.16047208       1.03309061
C        0.26373716      -3.84384439      -0.94146178       0.26591312      -1.62752049       0.39925764
C       -1.63788030       1.66236439       3.39045264      -0.31221758      -0.10650057       0.78651409
C        0.44747686      -3.71606395      -3.32034395      -0.00922143      -0.30880372       0.77535584
C       -1.95949385       0.45546070       4.00072195       0.64310142       0.07308265      -1.46414185
C        0.39980733      -4.50559184      -2.17537139      -0.42585460       1.17723699       0.67134065
C        3.15300252       4.76278164       4.49286749       0.47096826      -0.34372028      -0.12870195
C        3.15035250       3.86086180       3.42124965      -0.73810550       0.59934741      -0.09685772
C        1.98910334       5.39882757       4.88911821      -1.05561497      -0.59949426      -1.39313503
C        1.96347787       3.62581994       2.68846729      -0.07354232       0.53452174       0.78121131
C        0.78394737       5.11685945       4.19112470       0.64271573       0.73471257       0.13481602
C        0.75507329       4.27144553       3.07112982       0.81532280      -0.38649426       0.87321435
N        2.15951373       0.10324802      -3.33877418      -1.51816053      -1.43303826      -2.30118823
N        0.24016853      -1.70463965       0.23325189      -0.73594941       1.54704738       1.94117941
C       -0.66149805       3.04291870       1.54441263       0.49059461      -0.24157155      -0.09489565
C        0.35697510      -1.44972465      -4.37783382       0.32148599       0.17805004       0.07356442
H        3.80961706       0.79611938      -4.15455148      -0.57720765      -0.60103552      -0.25211693
H       -1.77064989      -1.66218707       3.75993778       0.02393241       0.43158865      -0.68243317
H        0.32181979      -4.43256662      -0.01542697      -0.31601072       0.51517498      -0.52856834
H       -1.92782138       2.57446983       3.89858152       0.28978810       0.08522595      -0.29468947
H        0.50667115      -4.16367814      -4.28918788       0.07801879      -0.02590853      -0.38346222
H       -2.45079944       0.43430005       4.97420599       0.20121898      -0.20799343      -0.41422040
H        0.42248557      -5.58917997      -2.18958590       0.12773736       0.18374695      -0.14584790
H        4.09763577       4.97053577       4.99630882      -0.32022318      -0.04734924      -0.09000185
H        4.11092570       3.42269518       3.13509347      -0.61061260      -0.05347680      -0.06889661
H        2.01098790       6.15278580       5.65495683      -0.13258310      -0.02758552       0.23866633
H        2.01142909       2.96012356       1.85057881      -0.11037127      -0.19845926      -0.20478667
H       -0.12127421       5.67115785       4.44854691       0.23288628      -0.37101493      -0.02745250
H        1.69302716      -0.12424342      -2.47265098       0.70018853       0.51739274       0.38285074
H        0.40758139      -0.71136854       0.04042580      -0.16001616      -0.58305394       0.09628536
H       -1.53079007       3.26862862       0.94577904      -0.26702683       0.47262838      -0.01797876
H        0.16593405       2.94826462       0.82661309      -0.11000797       0.16092255       0.44045627
H       -0.57805679      -0.87145183      -4.34516475       0.40863718      -0.01101500       0.04044932
H        0.32018506      -2.07783792      -5.30448101       0.36199761       0.87058040       0.82514084
26
Properties=species:S:1:pos:R:3:MACE_forces:R:3 smiles="[H:7][C:3]([H:8])([H:9])[C:1](=[C:2]([C:5]([H:13])([H:14])[H:15])[C:6]([H:16])([H:17])[H:18])[C:4]([H:10])([H:11])[H:12].[H:24][C:22]([H:25])([H:26])[C:21](=[O:19])[O:20][H:23]" total_charge=0 config_type="DES370K Dimers" MACE_energy=-12659.139238016953 pbc="F F F"
C        1.85423994      -0.10644000      -0.05772000       0.02936782      -1.15624056      -0.34721368
C        1.79875994      -0.29532001       1.27807999       0.22701894      -2.69275956      -0.48773863
C        3.12070990       0.21022999      -0.81876999       0.32635580       0.01518559       0.08854030
C        0.65753996      -0.18550999      -0.97701996      -0.42625287      -0.20582268       0.10326378
C        0.52485001      -0.56173998       2.04592013      -0.35165461       0.00690834      -0.10424990
C        3.00289988      -0.26650000       2.19058013       0.46517409      -0.17146814       0.07321251
H        3.39514994      -0.65094000      -1.45097005      -0.06927417       0.30871337       0.23492782
H        2.92878985       1.07862997      -1.47119999       0.20712261      -0.55916882       0.26964424
H        3.97188997       0.44746998      -0.15861002      -0.41873596      -0.09842567      -0.44915418
H       -0.24171001      -0.58639997      -0.47977000       0.48337419       0.13163707      -0.37308730
H        0.42552000       0.82010001      -1.36628008       0.10846936      -0.70430811       0.09490408
H        0.91181999      -0.84154004      -1.82647002      -0.16066752       0.23239663       0.31102703
H       -0.38341999      -0.41361001       1.43787992       0.48450936      -0.07483849       0.43954382
H        0.48648000       0.12446999       2.90861988      -0.06137618      -0.38659312      -0.31179488
H        0.53160000      -1.59886002       2.42137003      -0.04563022       0.38623936      -0.05608980
H        2.95372987       0.62618005       2.83658003       0.06919690      -0.52710631      -0.20383917
H        2.97890997      -1.16508996       2.82978010       0.10148047       0.35361787      -0.18871573
H        3.95923996      -0.25097999       1.64121008      -0.52074657      -0.04386263       0.40304686
O        1.43777990       2.45790005      -0.67358005      -0.03488885       1.06072083       0.28510455
O        1.70078993       2.05159998       1.52909994      -0.37909352       3.42539982      -0.62113468
C        1.52563000       2.87291002       0.46050999       0.12361539      -0.40228101       1.37669185
C        1.46116996       4.30890989       0.88730997      -0.09775366       0.83018815      -0.31820241
H        1.73115003       1.13057995       1.15118003      -0.12504513       1.05366430      -0.26161232
H        1.31896996       4.96162986       0.00961000       0.07241157      -0.38001714       0.41778243
H        2.39568996       4.60097980       1.39522004      -0.46305175      -0.23532066      -0.13874293
H        0.61918003       4.46561002       1.58236992       0.45607451      -0.16645841      -0.23611368
20
Properties=species:S:1:pos:R:3:MACE_forces:R:3 smiles="[H:5][C:3]([H:6])([H:7])[C:1]#[C:2][C:4]([H:8])([H:9])[H:10].[H:15][C:13]([H:16])([H:17])[C:12](=[O:11])[C:14]([H:18])([H:19])[H:20]" total_charge=0 config_type="DES370K Dimers" MACE_energy=-9505.954679607212 pbc="F F F"
C        0.57436997       1.97476006       2.94055009       0.67015285       1.67109824      -0.11607089
C        1.17618000       2.94075989       2.50930023      -1.16943065      -0.99439511       1.38786539
C       -0.14979000       0.81299996       3.45886993      -0.35603877      -0.17983056       0.50578256
C        1.89967012       4.10263967       1.99029994       0.05985516       0.39184164       0.17289511
H       -0.06237000      -0.03602000       2.76020002      -0.15431450       0.56963262       0.63708499
H       -1.21841002       1.05384993       3.58788990       0.45353909      -0.06876924       0.02073128
H        0.26269999       0.50879002       4.43556023      -0.21722352       0.17709430      -0.36373909
H        2.40100002       3.84922003       1.04105997      -0.16596191       0.38208551       0.49323475
H        1.20275998       4.93793010       1.80803001       0.35098986      -0.29094276       0.06389700
H        2.66339993       4.43323994       2.71420002      -0.30547616      -0.06745859      -0.33984388
O        0.85960996       0.00617000       1.17333007       0.90755771       0.11825184      -1.47154667
C        1.48656988       0.95577002       0.73287004      -0.21780242      -0.43205999       0.07563892
C        0.85213995       1.97617995      -0.18382999      -0.47805905       0.18360398      -0.57857258
C        2.94214988       1.17912006       1.07269001       0.71364776      -0.26290060       0.12883831
H       -0.20381000       1.71972013      -0.37307000       0.55256541       0.06687268       0.14012058
H        1.38503003       2.00738001      -1.14906001      -0.14377370      -0.00927437       0.36246161
H        0.89408999       2.97889995       0.27377000      -0.11230559      -0.79377453      -0.60989570
H        3.55453992       1.16752994       0.15538000      -0.24525463       0.03146697       0.29895301
H        3.07363987       2.15421009       1.57119012       0.11422074      -0.86761371      -0.45581217
H        3.30561995       0.38670000       1.74838006      -0.25688768       0.37507168      -0.35202252
46
Properties=species:S:1:pos:R:3:MACE_forces:R:3 smiles="[H:43][c:21]1[c:36]([c:38]2[c:35]([c:20]([c:18]([n:13][c:37]2[c:34]([c:19]1[H:41])[N:39]3[C:14](=[O:1])[c:30]4[c:31]([c:27]([c:23]([c:22]([c:26]4[Cl:9])[Cl:5])[Cl:6])[Cl:10])[C:15]3=[O:2])[C:40]5([C:16](=[O:3])[c:32]6[c:33]([c:29]([c:25]([c:24]([c:28]6[Cl:11])[Cl:7])[Cl:8])[Cl:12])[C:17]5=[O:4])[H:46])[H:42])[H:44])[H:45]" total_charge=0 config_type=PubChem MACE_energy=-138445.7767531373 pbc="F F F"
O       -1.59015629      -0.64771829      -1.87352321       1.59199187      -0.64321583       1.20204348
O       -1.10311220      -1.73561308       2.55796172       0.55422560       1.83585218      -3.42476718
O        2.83987858       1.85156574      -1.46208189      -0.68507887      -0.47470901      -0.72604058
O        2.56697084       1.21316209       3.07960369      -0.60302242       0.71487084      -0.55152579
Cl      -2.96317074       4.54889156       0.15500115       0.36165659      -1.70028164       0.23731489
Cl      -2.75731799       3.71530487       3.28303149       0.51063862      -0.85515209      -1.71480034
Cl      -0.47156594       6.62722875       0.31785201       1.18993977      -2.02975006      -0.53943262
Cl      -0.18979774       5.84279968       3.21391108      -0.70043394       1.11480476       0.08865785
Cl      -2.48162958       2.29026689      -2.08719585       0.56350396      -0.24016201       1.15778546
Cl      -1.80590341       0.84156736       4.05932715       0.15884994       0.56023112      -0.65092960
Cl       1.01861157       4.73313524      -1.80693195       0.09228316      -0.72966911      -0.05385432
Cl       1.10707714       3.44860317       4.35545470       0.03320190      -0.17661750      -2.05796479
N        1.51887526      -0.85983965       0.33721302      -1.50859721       1.83663959       0.50712309
C       -1.32711110      -0.52479908      -0.68458829      -2.91069942       0.12058515      -3.60788652
C       -1.15558395      -1.04950878       1.50282772      -0.73810627      -3.14345542       5.20385510
C        2.38615527       1.83789673      -0.34870622       3.12247304       0.76883533      -1.26404538
C        2.31976976       1.66405096       1.97113730       3.40483926      -5.41762335       3.01366813
C        2.71770813      -0.41605226       0.44398107       1.31115133      -3.19127613      -0.16090857
C       -0.39258311      -3.68597410      -0.69832776       0.41976877       0.73083181       0.85762933
C        3.76773407      -1.35977135       0.13938483       0.83908837       1.08562740       0.46924036
C        0.62876478      -4.53875682      -1.11569057       0.50568740       0.82577989       0.49346471
C       -2.36413453       2.92888548       0.58370516      -0.19317426       0.15011213       0.36213283
C       -2.22017811       2.61173226       1.95825865      -0.49156949       0.09120446       0.87953777
C        0.27560785       5.00235416       0.68667386       0.00037092       0.83113995      -0.55838330
C        0.30811043       4.74938204       2.02584805       1.18039025      -1.02316905       2.76378605
C       -2.09492872       1.93450310      -0.40077094      -0.64623298       0.23217139       0.00070163
C       -1.80584476       1.33076837       2.38464608      -0.61882124      -1.77606814      -0.45836610
C        0.93874743       4.10881712      -0.19104186       0.53996491       0.44798679      -1.28051408
C        0.99675154       3.63544132       2.57599738      -0.32520569      -0.09704657      -0.55697699
C       -1.70428870       0.65832894       0.03086342       0.10354729       1.87229053       2.83425837
C       -1.60883019       0.30205176       1.41741576      -0.17185148       5.04551021      -0.91123831
C        1.64584055       2.92542865       0.23307659      -4.08445398       3.55105504       1.98817379
C        1.56403723       2.76247789       1.63127532      -1.29131442       2.31780826       0.17674455
C       -0.07887230      -2.44014141      -0.15883676      -1.22589957      -3.23293255      -1.19109401
C        3.59113934      -2.65505645      -0.27328674       0.99877722       3.42623230       0.68007387
C        1.98219659      -4.19142768      -1.01831553      -3.10325572      -3.28602344      -0.92868363
C        1.24309578      -2.09713075      -0.09627704       1.61985788       0.46774841       0.59342785
C        2.27377226      -3.00820492      -0.43548713      -0.17164487       0.04446727      -0.40316408
N       -1.06687687      -1.52572558       0.23111274       1.07672141      -0.52534209      -1.03533762
C        3.00221874       0.98885520       0.77768787      -0.93449297       1.38801396      -0.90174353
H       -1.39072309      -4.07865617      -0.70254503      -0.37695123       0.31091616      -0.08612575
H        4.74025681      -0.93736217       0.24104308       0.79596632      -0.08323016      -0.00417056
H        0.26439002      -5.49053190      -1.38472733       0.27572388      -1.04244745      -0.72251411
H        4.46498038      -3.20527050      -0.56420157      -0.16204301      -0.58903392       0.00582094
H        2.66323425      -4.97027538      -1.35477195       0.40860794       0.63835456       0.29222070
H        4.08883717       1.20646717       0.80516808      -0.71637857      -0.15186397      -0.01719300
39
Properties=species:S:1:pos:R:3:MACE_forces:R:3 smiles="[H:21][c:7]1[c:8]([c:10]([c:12]2[c:11]([c:9]1[H:23])[C:4](=[O:1])[C:6]3=[C:5]([N:13]2[C:15]([H:28])([H:29])[H:30])[O:3][C@@:20]([C:18]3([H:37])[H:38])([H:39])[C:19]([C:16]([H:31])([H:32])[H:33])([C:17]([H:34])([H:35])[H:36])[O:2][C:14]([H:25])([H:26])[H:27])[H:24])[H:22]" total_charge=0 config_type=PubChem MACE_energy=-24549.264497729462 pbc="F F F"
O        0.57438644      -2.55380580       1.88209345      -0.11407930      -0.38878243       0.41802850
O       -2.98313091       0.69457174      -0.98201440       0.56298764      -0.06881448       0.89157900
O       -0.14111684       1.85007920       1.04658361       0.29524200       2.32683822      -0.35362486
C        1.01606652      -1.40833316       1.91688611      -0.35932156      -0.81147797      -0.72020266
C        0.73114926       0.95943647       1.47150948       0.79574337      -2.45794606       0.41281788
C        0.19643035      -0.28729908       1.58517255       1.01655525       0.26712259       0.51270013
C        4.69159319      -2.02600429       2.51897242      -0.87700030       0.61063869       0.09181675
C        5.19254543      -0.70361552       2.36388852      -0.66972621      -0.58945939      -0.47187256
C        3.31941487      -2.24223421       2.43698134       0.92475954       1.92059138      -0.70930378
C        4.34640314       0.36657904       2.04398253      -0.78206662      -1.40316789       0.30724349
C        2.46352150      -1.16305778       2.11199775      -0.39614026       0.25674419       0.32514569
C        2.93612840       0.14570572       1.94013526       1.21664082       0.01799717       0.47497805
N        2.05831399       1.22404256       1.70956733      -0.72909698       0.96332314      -0.78540819
C       -3.62705085       0.68854094      -2.24726317       1.70302858       0.48343529      -0.34104778
C        2.53578212       2.61802914       1.66109206       1.17317505      -0.54378383       0.16905442
C       -0.62838969       0.61193093      -1.65886829       0.12271440      -0.56889550      -0.63570264
C       -1.73024938       2.80667760      -1.25190971      -0.49782003      -0.30468412      -0.15314212
C       -1.25230334      -0.24409053       1.27086886      -0.12263978       0.06717289      -0.92391957
C       -1.66777942       1.31968166      -0.81393371      -0.76763964       0.47733847      -1.09856229
C       -1.37046144       1.20690533       0.70060404      -1.65280328      -1.25374790       0.19176948
H        5.31526758      -2.89946649       2.68720081       0.21293455       0.47132729       0.09537362
H        6.26618721      -0.58556566       2.42881205      -0.08741342       0.33838202      -0.04702789
H        2.91236140      -3.20958350       2.54294135      -0.53120461      -0.74334356       0.06163257
H        4.72487022       1.33341660       1.82695522       0.44690297       0.54818015       0.10515329
H       -3.87264774       1.71500899      -2.53663013      -0.08864413      -0.19310891      -0.19062051
H       -4.51652811       0.10132777      -2.16946814      -0.48976440      -0.26301676       0.27318748
H       -2.98089287       0.21749442      -3.02656434      -0.46618050       0.39605540       0.42888780
H        3.31721045       2.74363973       0.88309075      -0.44798199      -0.13174311       0.45054250
H        1.74717285       3.32087280       1.43828162      -0.32596977      -0.23591769       0.07959491
H        2.97796776       2.84448292       2.64671542      -0.16265323       0.13767411      -0.49127340
H        0.36052763       1.05415531      -1.46299181      -0.34492853      -0.06588044      -0.31210931
H       -0.55732880      -0.45535288      -1.37249122      -0.11900088       0.55686537      -0.35880738
H       -0.90255246       0.70978635      -2.75484917       0.58315327      -0.16581463       1.35061659
H       -0.78256700       3.26505639      -1.05633018       0.54043630       0.28532729       0.18455925
H       -1.91725633       2.94521596      -2.33574817       0.03653374      -0.39123291       0.62600416
H       -2.49576614       3.36017658      -0.70184455       0.05160475      -0.17763049      -0.03035469
H       -1.86580441      -0.37431643       2.16281154      -0.05022243      -0.03488601      -0.17705262
H       -1.54273102      -0.98744319       0.51542416      -0.01101561       0.21763776       0.40429675
H       -2.21083257       1.67526557       1.21624949       0.41090122       0.45068265      -0.05495006
38
Properties=species:S:1:pos:R:3:MACE_forces:R:3 smiles="[H:28][C:13]1([C:14]([C:16]([C:19]2([C:18]([C:15]1([H:32])[H:33])([C:8](=[O:3])[N:9]([C:12]2([H:27])[C:6](=[O:1])[O:4][H:20])[C:7](=[O:2])[C:17]([H:36])([C:10]([H:22])([H:23])[H:24])[C:11]([H:25])([H:26])[S:5][H:21])[H:37])[H:38])([H:34])[H:35])([H:30])[H:31])[H:29]" total_charge=0 config_type=PubChem MACE_energy=-34323.11441627624 pbc="F F F"
O        0.05146315       2.32522990      -2.75935981       0.77694586      -0.81840288       0.75604522
O        1.08194335       3.57561972       0.97759097      -0.23945806       0.17352917       0.35758257
O        1.56154491      -0.33757714       1.89416184      -0.12921938       0.24982103      -0.53673534
O        1.74145844       0.97387381      -2.18955372      -0.35444431      -0.06094061       0.42365121
S        3.60989716       2.21129610       4.95106747      -0.72235046       0.58376075       0.07848593
C        0.63491092       1.68721869      -1.89598081      -1.33057015       1.42141616      -1.41043521
C        1.45828511       2.46687593       1.31548622       1.20836914       2.90947585      -0.26372621
C        0.94780823       0.11593034       0.94611891       0.27435608      -2.27889016       1.83849399
N        0.92917486       1.44045301       0.60098909      -0.96052440      -1.73314222      -0.89181144
C        3.84135987       1.63245191       1.77003648      -0.13518967      -0.64133909      -0.34606420
C        2.20569553       2.08407452       3.73952295       0.17019436      -2.02870505      -0.19658820
C       -0.02160750       1.63806941      -0.50740145       0.59286671       1.56568914      -0.87780244
C       -1.79318616      -2.38095758      -0.36941669       0.67113934      -0.05377383       1.05375751
C       -2.68678138      -1.30161403      -0.90661631       0.09760679       0.17878906      -1.77879808
C       -0.85682807      -1.82496736       0.74888485       0.78402537       0.25587069      -0.63464257
C       -1.88199113      -0.10281292      -1.49516199      -0.15181234       0.59875750       0.68946309
C        2.64819600       2.43249633       2.30451610       0.09183753      -0.51127256       0.37249586
C       -0.02074943      -0.69442365       0.09362193      -1.10684604       1.16453215       0.67078184
C       -0.95427678       0.47426010      -0.39559868      -0.34910052      -2.58866126      -0.00761945
H        1.84621944       1.04107525      -3.15774319      -0.01800903       0.11521768       0.51163934
H        4.48276164       1.29770043       4.50840237      -0.40288002      -0.11583823      -0.32443714
H        4.78761627       1.93740299       2.18827000       0.08018844       0.48262036       0.28454496
H        3.76585104       0.56675725       1.98319926      -0.24971192       0.08268528      -0.13008493
H        3.93859388       1.76124241       0.68678039      -0.10039679      -0.04193921       0.15489977
H        1.39246525       2.74900867       4.03059508       0.42099401       0.18004026       0.36305800
H        1.78398325       1.03429910       3.80401732       0.64136011       1.28485420      -0.20117632
H       -0.61415587       2.57603146      -0.39116112       1.02956598      -0.65379074      -0.19752296
H       -2.39265344      -3.20857141       0.02538826       0.19605025       0.09076793      -0.13548477
H       -1.16368637      -2.75576470      -1.19238064      -0.17121281      -0.06096792       0.33883981
H       -3.32440088      -0.90999303      -0.14347265      -0.52079031       0.13722551       0.57898248
H       -3.33663270      -1.75724242      -1.70116756       0.48320798       0.65659251       0.62915400
H       -0.18857465      -2.59575579       1.12084784       0.06575602      -0.12892889      -0.07411190
H       -1.36260912      -1.43770525       1.63178315      -0.38064624       0.03226317      -0.18428532
H       -2.58203123       0.66332043      -1.79453299      -0.19717552       0.20234697      -0.25574482
H       -1.32702038      -0.38905327      -2.37510584       0.27546449      -0.18590057      -0.21300987
H        2.98278906       3.47357657       2.36245300      -0.42109890      -0.14773479      -0.30184194
H        0.52931260      -1.15730152      -0.71354447       0.16670800       0.23552588      -0.49222291
H       -1.60541151       0.80420985       0.41319839      -0.08519958      -0.55155324       0.35227044
46
Properties=species:S:1:pos:R:3:MACE_forces:R:3 smiles="[H:34][c:14]1[c:16]([c:23]([c:17]([c:15]([c:21]1[C:8]2=[N:5][N:27]([C:10](=[N:7]2)[N:25]([H:40])[c:22]3[c:19]([c:24]([c:18]([c:13]([c:20]3[F:1])[H:33])[H:38])[C:29]([F:2])([F:3])[F:4])[H:39])[C:30]([H:44])([H:45])[H:46])[H:35])[H:37])[N:26]4[C:11](=[C:12]([N:6]=[C:9]4[H:31])[C:28]([H:41])([H:42])[H:43])[H:32])[H:36]" total_charge=0 config_type=PubChem MACE_energy=-40834.80419230016 pbc="F F F"
F       -3.86517093       1.65860226      -3.47440479       0.25163535      -0.62059451      -0.03802262
F       -0.94635353      -3.04113147      -6.60520885      -0.51097760      -0.49694184       0.45907954
F        0.26674910      -2.80248830      -4.85023544      -0.01033231      -0.40492641       0.07680003
F       -1.54794476      -4.01110933      -4.67061851       0.48137138      -0.14247886      -0.87481985
N        1.13639589       1.16881128      -0.76913927       2.09176339       0.02364685       0.55101128
N        4.61711218       2.20586779       6.90442755      -0.10362389      -0.40489967       0.59773270
N       -0.89988122       0.82400825       0.12743207       2.05961430       0.16076807       0.57148887
C        0.45406464       1.12006571       0.33908093      -0.23586416       0.27111434       0.30586145
C        4.42506745       2.04471090       5.62160828      -2.67497022      -0.61018631       2.22637320
C       -0.92959330       0.62564873      -1.16609523      -0.35388525      -0.47089587       0.51245260
C        2.56533053       1.30849906       6.68278696       0.82092556       0.64896516      -0.33077496
C        3.46695234       1.73922088       7.60512640       0.65600567       0.49539723      -1.33619212
C       -3.35098121       0.08699145      -5.17607162      -0.11991099      -0.01400006      -0.77111979
C        0.54766397       0.83738124       2.81526115       0.27790621       0.10768725      -0.15460983
C        2.48824015       1.78990831       1.73471357      -0.50779351      -0.18935476      -0.50904705
C        1.22589113       0.85795828       4.02865698      -0.52358504       0.09264394       0.29853478
C        3.11294582       1.84931221       2.96181872       0.28583895       0.46719887       0.62631551
C       -2.66535256      -1.01897225      -5.69031522       0.47083884      -0.54852014       1.21926418
C       -1.63615343      -1.26340566      -3.48741720      -1.05360071       0.20694138      -1.18905547
C       -3.21688221       0.54021604      -3.87087391       0.71509348      -0.66911865      -0.31834174
C        1.17468514       1.26089879       1.64918175      -0.42570524       0.38659189      -0.52424296
C       -2.35203168      -0.14214800      -3.00168083       0.15666582      -0.86868771      -0.83334716
C        2.48627415       1.42398586       4.15363028      -0.15421568      -0.54247661      -1.17319008
C       -1.79542921      -1.71568654      -4.81388852      -0.60257995       1.40812818      -0.13489692
N       -2.15632460       0.21166118      -1.67603705       0.26927784       0.77505501      -0.05468923
N        3.12631418       1.52761485       5.39375307       0.88463892       0.08121765       1.08797692
N        0.33139694       0.78470649      -1.74364231      -3.25620768      -0.08194916      -1.14613933
C        3.30026533       1.76994767       9.11263610       1.02128041      -0.00005948      -0.93924272
C       -1.01464997      -2.91863797      -5.26840398       0.09172860       0.88901775       0.72401566
C        0.65988176       0.90207313      -3.18129561      -0.07189970       0.95637160       0.13268399
H        5.13264801       2.27588179       4.87337019       0.31180445       0.14026713      -0.63346595
H        1.59669294       0.92592060       6.94129469      -0.19982217      -0.07420488      -0.70072681
H       -3.97188614       0.62915461      -5.87175319      -0.21365993       0.18081597       0.19303837
H       -0.48866973       0.50745833       2.79597666       0.35101763      -0.11627972      -0.14386375
H        3.01437213       2.18543317       0.84089108      -0.59435191      -0.50243942       0.72870262
H        0.69745356       0.44366862       4.87589981       0.18387821       0.17900559       0.15729834
H        4.09690167       2.30683281       3.02293327      -0.21527196      -0.14221112      -0.08460207
H       -2.82680962      -1.37888239      -6.71563861       0.13820309       0.41154311       0.61892988
H       -0.99859581      -1.81370375      -2.81679199       0.06630438       0.08540674       0.16256656
H       -2.95567248       0.42868963      -1.07854245       0.70292290       0.00465849      -0.42505411
H        3.97019484       1.02468171       9.54985954      -0.10113736       0.18310507       0.12367402
H        2.28859212       1.53325464       9.38663532      -0.40196147      -0.09279982       0.06534641
H        3.56140830       2.75460913       9.50735046      -0.02068574      -0.17582880      -0.06263916
H       -0.16417233       1.42199215      -3.72084425       0.51585632      -0.49394663       0.49987246
H        1.55598058       1.54336669      -3.29487321      -0.50345584      -0.56266337       0.32508924
H        0.82523163      -0.07071743      -3.63839958       0.05092664       0.06991652       0.11397509
41
Properties=species:S:1:pos:R:3:MACE_forces:R:3 smiles="[H:20]/[C:7](=[N:2][C:4]1=[N:1][C:5]2=[C:6]([S:3]1)[C:12]([C:19]([C:18]([C:11]2([H:24])[H:25])([H:38])[H:39])([H:40])[H:41])([H:26])[H:27])/[N:8]3[C:14]([C:16]([N:9]([C:17]([C:15]3([H:32])[H:33])([H:36])[H:37])[C:13]([H:28])([H:29])[C:10]([H:21])([H:22])[H:23])([H:34])[H:35])([H:30])[H:31]" total_charge=0 config_type=PubChem MACE_energy=-31685.825475740876 pbc="F F F"
N       -1.00536892      -1.35847471      -0.53768692      -1.10179548       0.20739877       0.03991058
N        1.00160851      -0.34792958       0.07799926      -1.08727150       0.18843793       0.10469622
S        0.01225045      -2.48191235       1.58862724      -0.16788352       1.34404062      -0.00028004
C       -0.08600924      -1.27716527       0.31804051       5.18371057       2.80982323      -1.08790058
C       -1.87643382      -2.25278423      -0.00479410      -3.52410789       0.92970914      -4.05247271
C       -1.60828135      -2.84111545       1.09802516       1.14870579      -1.44436812       2.58392897
C        0.71523536       0.84855028      -0.40051256       1.24725682      -1.49735496       2.21539604
N        1.74863412       1.75850060      -0.56155119      -1.66490147      -1.26253450      -0.44842042
N        3.49449541       3.64616634       0.64642299      -0.31297327      -0.74318726      -0.11953385
C        4.38052537       5.68836500       1.67016353      -1.09666853       0.72273026       0.12231586
C       -3.14737055      -2.46387432      -0.76658628      -1.18556430       0.25692145      -0.21872327
C       -2.41990683      -3.85440490       1.73388829      -1.10852150      -0.76892143      -1.28817094
C        4.17842509       4.22569539       1.83906497      -1.04558195      -1.14627274      -0.08002139
C        3.17154076       1.31078132      -0.39122221      -2.10986189       1.60607850      -0.54818286
C        1.40788104       3.19988825      -0.64123867       1.39237500      -0.95974893       0.42469258
C        3.79857876       2.19864383       0.60927069      -3.31322141       1.25406750       1.93094023
C        2.02205588       3.89142634       0.61927809       1.37262137       1.01591966      -2.46163367
C       -4.03803775      -3.59575698      -0.21439872      -0.29291301       0.82842238       1.29346132
C       -3.89453266      -3.86160038       1.28235283       1.24408157      -2.83205331      -0.26338734
H       -0.34614590       1.17974987      -0.43565331       0.90204162       0.10446948      -0.45750115
H        3.42959072       6.21818115       1.91607609       0.89903156      -0.07428161      -0.26443746
H        5.18758537       6.03658726       2.29573133       0.07084254       0.30972480       0.20378171
H        4.62301113       5.83494951       0.62848004       0.14297930       0.41448446      -0.22128804
H       -2.90724752      -2.70162103      -1.81176160       0.02922431       0.21768015       0.26125383
H       -3.73482892      -1.50282047      -0.79588363       0.63951070      -0.83570729       0.05125772
H       -2.42157409      -3.72516344       2.75958588       0.26396929      -0.11409169       2.18644836
H       -1.92802284      -4.74811790       1.44413497       0.16563499      -1.42978200       0.27939927
H        3.55634930       4.00209167       2.73511603       0.43748931       0.04125625      -0.20438599
H        5.15051939       3.74349453       1.98781862      -0.31742537      -0.15378320      -0.27120294
H        3.22558763       0.39610143       0.12126603      -0.61319493      -1.51574992      -0.05785200
H        3.64154341       1.19864025      -1.34916494       0.32020722       0.36495108      -0.49993845
H        0.30511689       3.30358770      -0.65183220       0.78269037      -0.01826883      -0.13158113
H        1.88921918       3.60099770      -1.57933257      -0.68616046      -0.05686914       1.06375957
H        4.77764656       2.13789334       0.53331963       4.77758046      -0.34424543      -0.41138426
H        3.55938890       1.70417955       1.57683255      -0.12543252       0.55984606      -0.01455030
H        1.86064531       4.95755627       0.37338040       0.12674792      -0.27207946       0.80628192
H        1.58680203       3.60885837       1.54698148      -0.80666381      -0.35514531       0.75170266
H       -3.84355209      -4.52902029      -0.65079365       0.44567672      -1.10788456      -1.13259321
H       -5.08601425      -3.38707302      -0.35675112      -0.31836559       0.13900702      -0.50442043
H       -4.35012434      -3.15046332       1.87658062      -1.35340995       1.52089375       1.00930968
H       -4.33451984      -4.91532323       1.56699171       0.63954091       2.09646720      -0.58867409
28
Properties=species:S:1:pos:R:3:MACE_forces:R:3 smiles="[H:11][C:4]1([C:5]([C:3]([N:1]([C:2]1([H:7])[H:8])[H:6])([H:9])[H:10])([H:13])[H:14])[H:12].[H:25][C:18]1([C:19]([C:17]([N:15]([C:16]1([H:21])[H:22])[H:20])([H:23])[H:24])([H:27])[H:28])[H:26]" total_charge=0 config_type="DES370K Dimers" MACE_energy=-11576.089834578592 pbc="F F F"
N        1.21229005      -4.76958990       0.42605999      -2.32199268       1.59268526      -1.71660878
C        1.04874992      -3.46700001       1.10538995      -0.68927443       1.15190745       0.19999151
C        2.56965995      -5.16920995       0.52960998       1.40248482      -1.40606847       0.81795006
C        2.41593003      -3.05384016       1.49750996       0.99123784       1.49290285       2.70190458
C        3.38604975      -3.92518997       0.78470999       1.65284165       0.27574362      -1.02596260
H        1.09952998      -4.34948015      -0.50537997      -0.02229972      -1.49293190      -0.06608422
H        0.75240004      -2.65799999       0.41031000      -0.73402123      -0.85709644       0.03764404
H        0.38273001      -3.41320014       1.98798001       0.09891209      -0.52579823      -0.66654546
H        2.68859005      -5.78422022       1.44233000      -0.15012590      -0.09191908      -0.46522986
H        2.87678003      -5.78787040      -0.33548999      -0.15874521       0.41796625       0.48812688
H        2.58106995      -1.97171998       1.33266997       0.05064344      -0.60938241       0.22508147
H        2.48267984      -3.24247980       2.58628010       0.39136931       0.28881247      -0.38371012
H        4.30046987      -4.12845993       1.37459994      -0.45571260       0.15978213      -0.40767634
H        3.69491005      -3.42493010      -0.15327000      -0.05531736      -0.39660350       0.26111882
N       -3.28404999       3.03790998      -4.85683012      -0.44186099       0.97388007      -0.87003500
C       -2.91433001       3.70788002      -3.61779976       0.23783481       1.81010165      -1.03164135
C       -4.07124996       1.88897002      -4.45675993       0.23087870      -1.34732663       0.09135404
C       -2.48898005       2.58151006      -2.77977991       1.11438172      -1.29492641       2.52970599
C       -3.28233981       1.37920999      -3.19465994      -1.19904266      -1.29298582      -0.69819334
H       -3.82937002       3.67184019      -5.45477962       0.47183927      -0.51232022       0.28863928
H       -2.04595995       4.38535976      -3.72915006      -0.61834994      -0.08484446      -0.34412228
H       -3.77920008       4.31939030      -3.29607009       0.40059495      -0.37515332       0.66476840
H       -5.12413978       2.07080006      -4.16727018       0.33755337       0.30065801      -0.14709504
H       -4.07350015       1.17874002      -5.30589008      -0.12092200       0.14559906       0.63066347
H       -1.43461001       2.28268004      -2.93619013      -0.38459383       0.87715298       0.09145763
H       -2.64313006       2.71490002      -1.69170999       0.35245062       0.36014785      -0.56162800
H       -3.95385003       1.04998994      -2.37849998       0.19352909       0.04620013      -0.66073715
H       -2.60405016       0.53735000      -3.43268013      -0.57429310       0.39381710       0.01686336
36
Properties=species:S:1:pos:R:3:MACE_forces:R:3 smiles="[H:22][c:7]1[c:10]([c:14]([c:18]([c:15]([c:11]1[H:26])[H:30])[C:5]2=[C:6]([O:3][c:17]3[c:13]([c:9]([c:8]([c:12]([c:16]3[O:2]2)[H:27])[H:23])[H:24])[H:28])[C:21]([H:35])([H:36])[N:19]([H:31])[C:4](=[O:1])[C:20]([H:32])([H:33])[H:34])[H:29])[H:25]" total_charge=0 config_type=PubChem MACE_energy=-25521.398847692093 pbc="F F F"
O        4.43945124      -0.15258042       0.59261206      -0.18014988       1.41865556       0.58189465
O       -1.44364235       0.61095039       0.02179857      -0.62617804      -0.10538534      -0.63333234
O       -0.01493517       1.56428506       2.27322771       0.69953693      -0.43777059      -0.82104253
C        4.14001348       0.95614153       1.05711915       0.06813502      -1.53259720      -0.78862373
C       -0.12544296       0.24967208       0.20322194       1.21188733       0.81846924       2.74170713
C        0.55062575       0.69250023       1.32222679      -1.03551034      -1.27664613      -1.63616612
C        1.18762906      -2.75894997      -2.56829856       0.79702735       0.50016431       0.23768712
C       -4.03954313       2.47014882       1.82086851       0.41209350       0.66839291       1.23224547
C       -3.27876136       3.04175141       2.87201455       0.03393173      -0.78447476      -1.29772127
C        2.06837167      -1.72237680      -2.23182246      -0.79472306       0.64607187       0.61388733
C       -0.09105162      -2.75519560      -2.06189392      -1.06731782       0.19876796       0.68962998
C       -3.41274402       1.63338806       0.91242798      -0.36335328      -0.00513968      -0.54069003
C       -1.90916918       2.77792790       2.98113491      -0.78125302      -0.65439161      -1.05898777
C        1.64863135      -0.67993245      -1.36015818      -0.35784876      -1.49889900      -0.28864450
C       -0.53066263      -1.76807187      -1.15229426       1.52666747      -0.31214160      -0.82113993
C       -2.07205579       1.36675867       0.99248039       1.53694515       0.18475709       1.23678205
C       -1.32887957       1.88704993       2.07004323      -0.65325629       0.52270090       0.07268242
C        0.37525825      -0.76793799      -0.75506816      -0.38932698       0.34619645      -0.72678967
N        2.91931059       1.15789422       1.64759829       0.94466211      -0.32474253      -0.44594697
C        5.07427885       2.17035701       0.94613641      -0.22191858      -0.76648218      -0.47797642
C        1.87599291       0.14517351       1.76045754       0.18514402      -0.11345133       0.29785215
H        1.52431657      -3.57312248      -3.20814345      -0.12147486       0.29193859       0.09361467
H       -5.10156868       2.72391274       1.73606779       0.51010925      -0.29165943      -0.02379336
H       -3.74873922       3.68314531       3.57783987      -0.25951654       0.44376570       0.34216966
H        3.05669787      -1.73662207      -2.66112111       0.12028460       0.24406763       0.07887254
H       -0.76042364      -3.55594489      -2.36443183      -0.03415475       0.21435404       0.14281670
H       -3.93917987       1.19012769       0.08615732      -0.24756447       0.00375472      -0.14370016
H       -1.30409131       3.27959682       3.70882084       0.20459107      -0.12242060       0.32487414
H        2.29153147       0.14955326      -1.11726020       0.14999997      -0.06509632      -0.00816309
H       -1.53059194      -1.74378131      -0.77672312      -0.31223642      -0.16442155       0.15028922
H        2.71444466       2.06015017       1.99674966      -0.20530205       0.67301756       0.28299600
H        4.49395182       3.00870135       0.58959782      -0.07880937       0.35367343      -0.05016100
H        5.46642496       2.41489818       1.92730190       0.23629884       0.02733069       0.00966500
H        5.87729980       1.95787885       0.20385920      -0.62863352       0.03640571       0.83526158
H        1.80172160      -0.17464928       2.81155517      -0.12480507       0.16879774      -0.24234454
H        2.17590978      -0.75241873       1.19627764      -0.15398125       0.69443772       0.04029563
17
Properties=species:S:1:pos:R:3:MACE_forces:R:3 smiles="[H:8][C:3]([H:9])([H:10])[O:1][C:4]([H:11])([H:12])[C:5]([H:13])([H:14])[N:2]([H:6])[H:7].[H:16][O:15][H:17]" total_charge=0 config_type="DES370K Dimers" MACE_energy=-8879.6438727366 pbc="F F F"
O        0.72732001      -0.71818000       1.03014004      -1.58455862       1.30710985      -0.54390714
N        0.33115000      -2.27382993       3.49079990      -0.07560766       1.81273422       0.63226585
C        0.00000000       0.00000000       0.00000000       1.45705153       0.35212102      -0.15607886
C        0.39043998      -2.06853008       1.01696003       0.29541410      -0.29465630      -0.10469333
C        0.93680000      -2.70096016       2.27818990       0.04904751      -2.60673419      -1.20267046
H        0.66435003      -1.30347991       3.50038004      -0.69046832      -0.15558682       0.84273417
H       -0.69066000      -2.22304010       3.41333985       0.57164167      -0.07582781      -0.06492468
H        0.53084004      -0.23538001      -0.93777001      -0.43536564       0.25454842       0.03689678
H        0.11961000       1.07591009       0.21146000      -0.05830664      -0.53979239      -0.08093784
H       -1.07298004      -0.21389000      -0.13989000       0.40237882      -0.33211734       0.59751380
H       -0.70595002      -2.22068000       1.03183007       0.24126861       0.16200189      -0.08849530
H        0.78112996      -2.52593016       0.08766000      -0.07498660      -0.13576267       0.37106564
H        2.03554010      -2.63704014       2.39706993      -0.58797928       0.10402829      -0.35935132
H        0.67454004      -3.76775002       2.14169001       0.50366652       0.14812759       0.10453136
O        1.91079008      -0.37930998      -3.95923996      -1.10943264       0.01136651      -0.83764240
H        1.46969008       0.40300000      -4.36135006       0.51269700      -0.98304758       0.46051605
H        1.41302002      -1.15225005      -4.30999994       0.58353965       0.97148729       0.39317767
17
Properties=species:S:1:pos:R:3:MACE_forces:R:3 smiles="[H:5][C:1]([H:6])([H:7])[C:3]([H:11])([H:12])[C:4]([H:13])([H:14])[C:2]([H:8])([H:9])[H:10].[H:16][O:15][H:17]" total_charge=0 config_type="DES370K Dimers" MACE_energy=-6395.1609042240025 pbc="F F F"
C        0.00000000       0.00000000       0.00000000       0.21690700      -0.60250783      -0.10777438
C       -2.07708001      -2.19121003      -2.59104013       0.55569159      -0.56604883       0.33917187
C       -1.11572004      -0.40893000      -0.96350002      -0.23946403      -1.13352158      -0.56504102
C       -0.81376004      -1.77006006      -1.77967000      -0.55538465       1.96567526      -0.59463723
H        0.93011999      -0.07308000      -0.58834004      -0.11328499       0.15130895       0.51112797
H        0.05209000      -0.72265995       0.83166003       0.14989367       0.34998431      -0.27516645
H       -0.07074000       1.01686001       0.42142001      -0.18733643      -0.46071418      -0.30444565
H       -2.47715997      -1.35475993      -3.18845010       0.28043121      -0.29918973       0.30968708
H       -2.89176988      -2.60225010      -1.97141004       0.40856446       0.20336265      -0.17447598
H       -1.72662997      -2.97888994      -3.27903986      -0.52364465       0.24028228       0.11012147
H       -2.09485983      -0.58086997      -0.47650999       0.52382045       0.35582722       0.00511298
H       -1.24475002       0.40770000      -1.69965994      -0.11897744      -0.55768613       0.21068944
H       -0.10594000      -1.48879003      -2.58298993       0.12949198      -0.21010350       0.62922715
H       -0.35292000      -2.59096002      -1.19725001      -0.52970111       0.55004788      -0.08390248
O       -3.46262002      -4.58780002       0.66991996      -0.00863104      -0.60811849       1.25010348
H       -2.81343007      -4.47426987       1.40061998      -0.81830238      -0.16582034      -0.86901580
H       -4.12014007      -5.23075008       1.01997996       0.82992638       0.78722205      -0.39078246
